p cnf 2896 11088
-161 1 0
-161 41 0
-161 101 0
161 -1 -41 -101 0
-162 5 0
-162 47 0
-162 107 0
162 -5 -47 -107 0
-163 9 0
-163 53 0
-163 113 0
163 -9 -53 -113 0
-164 13 0
-164 59 0
-164 119 0
164 -13 -59 -119 0
-165 17 0
-165 65 0
-165 125 0
165 -17 -65 -125 0
-166 21 0
-166 71 0
-166 131 0
166 -21 -71 -131 0
-167 25 0
-167 77 0
-167 137 0
167 -25 -77 -137 0
-168 29 0
-168 83 0
-168 143 0
168 -29 -83 -143 0
-169 33 0
-169 89 0
-169 149 0
169 -33 -89 -149 0
-170 37 0
-170 95 0
-170 155 0
170 -37 -95 -155 0
-171 161 162 0
-171 -161 -162 0
171 -161 162 0
171 161 -162 0
-172 171 163 0
-172 -171 -163 0
172 -171 163 0
172 171 -163 0
-173 172 164 0
-173 -172 -164 0
173 -172 164 0
173 172 -164 0
-174 173 165 0
-174 -173 -165 0
174 -173 165 0
174 173 -165 0
-175 174 166 0
-175 -174 -166 0
175 -174 166 0
175 174 -166 0
-176 175 167 0
-176 -175 -167 0
176 -175 167 0
176 175 -167 0
-177 176 168 0
-177 -176 -168 0
177 -176 168 0
177 176 -168 0
-178 177 169 0
-178 -177 -169 0
178 -177 169 0
178 177 -169 0
-179 178 170 0
-179 -178 -170 0
179 -178 170 0
179 178 -170 0
179 0
-180 1 0
-180 41 0
-180 102 0
180 -1 -41 -102 0
-181 5 0
-181 47 0
-181 108 0
181 -5 -47 -108 0
-182 9 0
-182 53 0
-182 114 0
182 -9 -53 -114 0
-183 13 0
-183 59 0
-183 120 0
183 -13 -59 -120 0
-184 17 0
-184 65 0
-184 126 0
184 -17 -65 -126 0
-185 21 0
-185 71 0
-185 132 0
185 -21 -71 -132 0
-186 25 0
-186 77 0
-186 138 0
186 -25 -77 -138 0
-187 29 0
-187 83 0
-187 144 0
187 -29 -83 -144 0
-188 33 0
-188 89 0
-188 150 0
188 -33 -89 -150 0
-189 37 0
-189 95 0
-189 156 0
189 -37 -95 -156 0
-190 180 181 0
-190 -180 -181 0
190 -180 181 0
190 180 -181 0
-191 190 182 0
-191 -190 -182 0
191 -190 182 0
191 190 -182 0
-192 191 183 0
-192 -191 -183 0
192 -191 183 0
192 191 -183 0
-193 192 184 0
-193 -192 -184 0
193 -192 184 0
193 192 -184 0
-194 193 185 0
-194 -193 -185 0
194 -193 185 0
194 193 -185 0
-195 194 186 0
-195 -194 -186 0
195 -194 186 0
195 194 -186 0
-196 195 187 0
-196 -195 -187 0
196 -195 187 0
196 195 -187 0
-197 196 188 0
-197 -196 -188 0
197 -196 188 0
197 196 -188 0
-198 197 189 0
-198 -197 -189 0
198 -197 189 0
198 197 -189 0
-198 0
-199 1 0
-199 41 0
-199 103 0
199 -1 -41 -103 0
-200 5 0
-200 47 0
-200 109 0
200 -5 -47 -109 0
-201 9 0
-201 53 0
-201 115 0
201 -9 -53 -115 0
-202 13 0
-202 59 0
-202 121 0
202 -13 -59 -121 0
-203 17 0
-203 65 0
-203 127 0
203 -17 -65 -127 0
-204 21 0
-204 71 0
-204 133 0
204 -21 -71 -133 0
-205 25 0
-205 77 0
-205 139 0
205 -25 -77 -139 0
-206 29 0
-206 83 0
-206 145 0
206 -29 -83 -145 0
-207 33 0
-207 89 0
-207 151 0
207 -33 -89 -151 0
-208 37 0
-208 95 0
-208 157 0
208 -37 -95 -157 0
-209 199 200 0
-209 -199 -200 0
209 -199 200 0
209 199 -200 0
-210 209 201 0
-210 -209 -201 0
210 -209 201 0
210 209 -201 0
-211 210 202 0
-211 -210 -202 0
211 -210 202 0
211 210 -202 0
-212 211 203 0
-212 -211 -203 0
212 -211 203 0
212 211 -203 0
-213 212 204 0
-213 -212 -204 0
213 -212 204 0
213 212 -204 0
-214 213 205 0
-214 -213 -205 0
214 -213 205 0
214 213 -205 0
-215 214 206 0
-215 -214 -206 0
215 -214 206 0
215 214 -206 0
-216 215 207 0
-216 -215 -207 0
216 -215 207 0
216 215 -207 0
-217 216 208 0
-217 -216 -208 0
217 -216 208 0
217 216 -208 0
-217 0
-218 1 0
-218 41 0
-218 104 0
218 -1 -41 -104 0
-219 5 0
-219 47 0
-219 110 0
219 -5 -47 -110 0
-220 9 0
-220 53 0
-220 116 0
220 -9 -53 -116 0
-221 13 0
-221 59 0
-221 122 0
221 -13 -59 -122 0
-222 17 0
-222 65 0
-222 128 0
222 -17 -65 -128 0
-223 21 0
-223 71 0
-223 134 0
223 -21 -71 -134 0
-224 25 0
-224 77 0
-224 140 0
224 -25 -77 -140 0
-225 29 0
-225 83 0
-225 146 0
225 -29 -83 -146 0
-226 33 0
-226 89 0
-226 152 0
226 -33 -89 -152 0
-227 37 0
-227 95 0
-227 158 0
227 -37 -95 -158 0
-228 218 219 0
-228 -218 -219 0
228 -218 219 0
228 218 -219 0
-229 228 220 0
-229 -228 -220 0
229 -228 220 0
229 228 -220 0
-230 229 221 0
-230 -229 -221 0
230 -229 221 0
230 229 -221 0
-231 230 222 0
-231 -230 -222 0
231 -230 222 0
231 230 -222 0
-232 231 223 0
-232 -231 -223 0
232 -231 223 0
232 231 -223 0
-233 232 224 0
-233 -232 -224 0
233 -232 224 0
233 232 -224 0
-234 233 225 0
-234 -233 -225 0
234 -233 225 0
234 233 -225 0
-235 234 226 0
-235 -234 -226 0
235 -234 226 0
235 234 -226 0
-236 235 227 0
-236 -235 -227 0
236 -235 227 0
236 235 -227 0
-236 0
-237 1 0
-237 41 0
-237 105 0
237 -1 -41 -105 0
-238 5 0
-238 47 0
-238 111 0
238 -5 -47 -111 0
-239 9 0
-239 53 0
-239 117 0
239 -9 -53 -117 0
-240 13 0
-240 59 0
-240 123 0
240 -13 -59 -123 0
-241 17 0
-241 65 0
-241 129 0
241 -17 -65 -129 0
-242 21 0
-242 71 0
-242 135 0
242 -21 -71 -135 0
-243 25 0
-243 77 0
-243 141 0
243 -25 -77 -141 0
-244 29 0
-244 83 0
-244 147 0
244 -29 -83 -147 0
-245 33 0
-245 89 0
-245 153 0
245 -33 -89 -153 0
-246 37 0
-246 95 0
-246 159 0
246 -37 -95 -159 0
-247 237 238 0
-247 -237 -238 0
247 -237 238 0
247 237 -238 0
-248 247 239 0
-248 -247 -239 0
248 -247 239 0
248 247 -239 0
-249 248 240 0
-249 -248 -240 0
249 -248 240 0
249 248 -240 0
-250 249 241 0
-250 -249 -241 0
250 -249 241 0
250 249 -241 0
-251 250 242 0
-251 -250 -242 0
251 -250 242 0
251 250 -242 0
-252 251 243 0
-252 -251 -243 0
252 -251 243 0
252 251 -243 0
-253 252 244 0
-253 -252 -244 0
253 -252 244 0
253 252 -244 0
-254 253 245 0
-254 -253 -245 0
254 -253 245 0
254 253 -245 0
-255 254 246 0
-255 -254 -246 0
255 -254 246 0
255 254 -246 0
-255 0
-256 1 0
-256 41 0
-256 106 0
256 -1 -41 -106 0
-257 5 0
-257 47 0
-257 112 0
257 -5 -47 -112 0
-258 9 0
-258 53 0
-258 118 0
258 -9 -53 -118 0
-259 13 0
-259 59 0
-259 124 0
259 -13 -59 -124 0
-260 17 0
-260 65 0
-260 130 0
260 -17 -65 -130 0
-261 21 0
-261 71 0
-261 136 0
261 -21 -71 -136 0
-262 25 0
-262 77 0
-262 142 0
262 -25 -77 -142 0
-263 29 0
-263 83 0
-263 148 0
263 -29 -83 -148 0
-264 33 0
-264 89 0
-264 154 0
264 -33 -89 -154 0
-265 37 0
-265 95 0
-265 160 0
265 -37 -95 -160 0
-266 256 257 0
-266 -256 -257 0
266 -256 257 0
266 256 -257 0
-267 266 258 0
-267 -266 -258 0
267 -266 258 0
267 266 -258 0
-268 267 259 0
-268 -267 -259 0
268 -267 259 0
268 267 -259 0
-269 268 260 0
-269 -268 -260 0
269 -268 260 0
269 268 -260 0
-270 269 261 0
-270 -269 -261 0
270 -269 261 0
270 269 -261 0
-271 270 262 0
-271 -270 -262 0
271 -270 262 0
271 270 -262 0
-272 271 263 0
-272 -271 -263 0
272 -271 263 0
272 271 -263 0
-273 272 264 0
-273 -272 -264 0
273 -272 264 0
273 272 -264 0
-274 273 265 0
-274 -273 -265 0
274 -273 265 0
274 273 -265 0
-274 0
-275 1 0
-275 42 0
-275 101 0
275 -1 -42 -101 0
-276 5 0
-276 48 0
-276 107 0
276 -5 -48 -107 0
-277 9 0
-277 54 0
-277 113 0
277 -9 -54 -113 0
-278 13 0
-278 60 0
-278 119 0
278 -13 -60 -119 0
-279 17 0
-279 66 0
-279 125 0
279 -17 -66 -125 0
-280 21 0
-280 72 0
-280 131 0
280 -21 -72 -131 0
-281 25 0
-281 78 0
-281 137 0
281 -25 -78 -137 0
-282 29 0
-282 84 0
-282 143 0
282 -29 -84 -143 0
-283 33 0
-283 90 0
-283 149 0
283 -33 -90 -149 0
-284 37 0
-284 96 0
-284 155 0
284 -37 -96 -155 0
-285 275 276 0
-285 -275 -276 0
285 -275 276 0
285 275 -276 0
-286 285 277 0
-286 -285 -277 0
286 -285 277 0
286 285 -277 0
-287 286 278 0
-287 -286 -278 0
287 -286 278 0
287 286 -278 0
-288 287 279 0
-288 -287 -279 0
288 -287 279 0
288 287 -279 0
-289 288 280 0
-289 -288 -280 0
289 -288 280 0
289 288 -280 0
-290 289 281 0
-290 -289 -281 0
290 -289 281 0
290 289 -281 0
-291 290 282 0
-291 -290 -282 0
291 -290 282 0
291 290 -282 0
-292 291 283 0
-292 -291 -283 0
292 -291 283 0
292 291 -283 0
-293 292 284 0
-293 -292 -284 0
293 -292 284 0
293 292 -284 0
-293 0
-294 1 0
-294 42 0
-294 102 0
294 -1 -42 -102 0
-295 5 0
-295 48 0
-295 108 0
295 -5 -48 -108 0
-296 9 0
-296 54 0
-296 114 0
296 -9 -54 -114 0
-297 13 0
-297 60 0
-297 120 0
297 -13 -60 -120 0
-298 17 0
-298 66 0
-298 126 0
298 -17 -66 -126 0
-299 21 0
-299 72 0
-299 132 0
299 -21 -72 -132 0
-300 25 0
-300 78 0
-300 138 0
300 -25 -78 -138 0
-301 29 0
-301 84 0
-301 144 0
301 -29 -84 -144 0
-302 33 0
-302 90 0
-302 150 0
302 -33 -90 -150 0
-303 37 0
-303 96 0
-303 156 0
303 -37 -96 -156 0
-304 294 295 0
-304 -294 -295 0
304 -294 295 0
304 294 -295 0
-305 304 296 0
-305 -304 -296 0
305 -304 296 0
305 304 -296 0
-306 305 297 0
-306 -305 -297 0
306 -305 297 0
306 305 -297 0
-307 306 298 0
-307 -306 -298 0
307 -306 298 0
307 306 -298 0
-308 307 299 0
-308 -307 -299 0
308 -307 299 0
308 307 -299 0
-309 308 300 0
-309 -308 -300 0
309 -308 300 0
309 308 -300 0
-310 309 301 0
-310 -309 -301 0
310 -309 301 0
310 309 -301 0
-311 310 302 0
-311 -310 -302 0
311 -310 302 0
311 310 -302 0
-312 311 303 0
-312 -311 -303 0
312 -311 303 0
312 311 -303 0
312 0
-313 1 0
-313 42 0
-313 103 0
313 -1 -42 -103 0
-314 5 0
-314 48 0
-314 109 0
314 -5 -48 -109 0
-315 9 0
-315 54 0
-315 115 0
315 -9 -54 -115 0
-316 13 0
-316 60 0
-316 121 0
316 -13 -60 -121 0
-317 17 0
-317 66 0
-317 127 0
317 -17 -66 -127 0
-318 21 0
-318 72 0
-318 133 0
318 -21 -72 -133 0
-319 25 0
-319 78 0
-319 139 0
319 -25 -78 -139 0
-320 29 0
-320 84 0
-320 145 0
320 -29 -84 -145 0
-321 33 0
-321 90 0
-321 151 0
321 -33 -90 -151 0
-322 37 0
-322 96 0
-322 157 0
322 -37 -96 -157 0
-323 313 314 0
-323 -313 -314 0
323 -313 314 0
323 313 -314 0
-324 323 315 0
-324 -323 -315 0
324 -323 315 0
324 323 -315 0
-325 324 316 0
-325 -324 -316 0
325 -324 316 0
325 324 -316 0
-326 325 317 0
-326 -325 -317 0
326 -325 317 0
326 325 -317 0
-327 326 318 0
-327 -326 -318 0
327 -326 318 0
327 326 -318 0
-328 327 319 0
-328 -327 -319 0
328 -327 319 0
328 327 -319 0
-329 328 320 0
-329 -328 -320 0
329 -328 320 0
329 328 -320 0
-330 329 321 0
-330 -329 -321 0
330 -329 321 0
330 329 -321 0
-331 330 322 0
-331 -330 -322 0
331 -330 322 0
331 330 -322 0
-331 0
-332 1 0
-332 42 0
-332 104 0
332 -1 -42 -104 0
-333 5 0
-333 48 0
-333 110 0
333 -5 -48 -110 0
-334 9 0
-334 54 0
-334 116 0
334 -9 -54 -116 0
-335 13 0
-335 60 0
-335 122 0
335 -13 -60 -122 0
-336 17 0
-336 66 0
-336 128 0
336 -17 -66 -128 0
-337 21 0
-337 72 0
-337 134 0
337 -21 -72 -134 0
-338 25 0
-338 78 0
-338 140 0
338 -25 -78 -140 0
-339 29 0
-339 84 0
-339 146 0
339 -29 -84 -146 0
-340 33 0
-340 90 0
-340 152 0
340 -33 -90 -152 0
-341 37 0
-341 96 0
-341 158 0
341 -37 -96 -158 0
-342 332 333 0
-342 -332 -333 0
342 -332 333 0
342 332 -333 0
-343 342 334 0
-343 -342 -334 0
343 -342 334 0
343 342 -334 0
-344 343 335 0
-344 -343 -335 0
344 -343 335 0
344 343 -335 0
-345 344 336 0
-345 -344 -336 0
345 -344 336 0
345 344 -336 0
-346 345 337 0
-346 -345 -337 0
346 -345 337 0
346 345 -337 0
-347 346 338 0
-347 -346 -338 0
347 -346 338 0
347 346 -338 0
-348 347 339 0
-348 -347 -339 0
348 -347 339 0
348 347 -339 0
-349 348 340 0
-349 -348 -340 0
349 -348 340 0
349 348 -340 0
-350 349 341 0
-350 -349 -341 0
350 -349 341 0
350 349 -341 0
-350 0
-351 1 0
-351 42 0
-351 105 0
351 -1 -42 -105 0
-352 5 0
-352 48 0
-352 111 0
352 -5 -48 -111 0
-353 9 0
-353 54 0
-353 117 0
353 -9 -54 -117 0
-354 13 0
-354 60 0
-354 123 0
354 -13 -60 -123 0
-355 17 0
-355 66 0
-355 129 0
355 -17 -66 -129 0
-356 21 0
-356 72 0
-356 135 0
356 -21 -72 -135 0
-357 25 0
-357 78 0
-357 141 0
357 -25 -78 -141 0
-358 29 0
-358 84 0
-358 147 0
358 -29 -84 -147 0
-359 33 0
-359 90 0
-359 153 0
359 -33 -90 -153 0
-360 37 0
-360 96 0
-360 159 0
360 -37 -96 -159 0
-361 351 352 0
-361 -351 -352 0
361 -351 352 0
361 351 -352 0
-362 361 353 0
-362 -361 -353 0
362 -361 353 0
362 361 -353 0
-363 362 354 0
-363 -362 -354 0
363 -362 354 0
363 362 -354 0
-364 363 355 0
-364 -363 -355 0
364 -363 355 0
364 363 -355 0
-365 364 356 0
-365 -364 -356 0
365 -364 356 0
365 364 -356 0
-366 365 357 0
-366 -365 -357 0
366 -365 357 0
366 365 -357 0
-367 366 358 0
-367 -366 -358 0
367 -366 358 0
367 366 -358 0
-368 367 359 0
-368 -367 -359 0
368 -367 359 0
368 367 -359 0
-369 368 360 0
-369 -368 -360 0
369 -368 360 0
369 368 -360 0
-369 0
-370 1 0
-370 42 0
-370 106 0
370 -1 -42 -106 0
-371 5 0
-371 48 0
-371 112 0
371 -5 -48 -112 0
-372 9 0
-372 54 0
-372 118 0
372 -9 -54 -118 0
-373 13 0
-373 60 0
-373 124 0
373 -13 -60 -124 0
-374 17 0
-374 66 0
-374 130 0
374 -17 -66 -130 0
-375 21 0
-375 72 0
-375 136 0
375 -21 -72 -136 0
-376 25 0
-376 78 0
-376 142 0
376 -25 -78 -142 0
-377 29 0
-377 84 0
-377 148 0
377 -29 -84 -148 0
-378 33 0
-378 90 0
-378 154 0
378 -33 -90 -154 0
-379 37 0
-379 96 0
-379 160 0
379 -37 -96 -160 0
-380 370 371 0
-380 -370 -371 0
380 -370 371 0
380 370 -371 0
-381 380 372 0
-381 -380 -372 0
381 -380 372 0
381 380 -372 0
-382 381 373 0
-382 -381 -373 0
382 -381 373 0
382 381 -373 0
-383 382 374 0
-383 -382 -374 0
383 -382 374 0
383 382 -374 0
-384 383 375 0
-384 -383 -375 0
384 -383 375 0
384 383 -375 0
-385 384 376 0
-385 -384 -376 0
385 -384 376 0
385 384 -376 0
-386 385 377 0
-386 -385 -377 0
386 -385 377 0
386 385 -377 0
-387 386 378 0
-387 -386 -378 0
387 -386 378 0
387 386 -378 0
-388 387 379 0
-388 -387 -379 0
388 -387 379 0
388 387 -379 0
-388 0
-389 1 0
-389 43 0
-389 101 0
389 -1 -43 -101 0
-390 5 0
-390 49 0
-390 107 0
390 -5 -49 -107 0
-391 9 0
-391 55 0
-391 113 0
391 -9 -55 -113 0
-392 13 0
-392 61 0
-392 119 0
392 -13 -61 -119 0
-393 17 0
-393 67 0
-393 125 0
393 -17 -67 -125 0
-394 21 0
-394 73 0
-394 131 0
394 -21 -73 -131 0
-395 25 0
-395 79 0
-395 137 0
395 -25 -79 -137 0
-396 29 0
-396 85 0
-396 143 0
396 -29 -85 -143 0
-397 33 0
-397 91 0
-397 149 0
397 -33 -91 -149 0
-398 37 0
-398 97 0
-398 155 0
398 -37 -97 -155 0
-399 389 390 0
-399 -389 -390 0
399 -389 390 0
399 389 -390 0
-400 399 391 0
-400 -399 -391 0
400 -399 391 0
400 399 -391 0
-401 400 392 0
-401 -400 -392 0
401 -400 392 0
401 400 -392 0
-402 401 393 0
-402 -401 -393 0
402 -401 393 0
402 401 -393 0
-403 402 394 0
-403 -402 -394 0
403 -402 394 0
403 402 -394 0
-404 403 395 0
-404 -403 -395 0
404 -403 395 0
404 403 -395 0
-405 404 396 0
-405 -404 -396 0
405 -404 396 0
405 404 -396 0
-406 405 397 0
-406 -405 -397 0
406 -405 397 0
406 405 -397 0
-407 406 398 0
-407 -406 -398 0
407 -406 398 0
407 406 -398 0
-407 0
-408 1 0
-408 43 0
-408 102 0
408 -1 -43 -102 0
-409 5 0
-409 49 0
-409 108 0
409 -5 -49 -108 0
-410 9 0
-410 55 0
-410 114 0
410 -9 -55 -114 0
-411 13 0
-411 61 0
-411 120 0
411 -13 -61 -120 0
-412 17 0
-412 67 0
-412 126 0
412 -17 -67 -126 0
-413 21 0
-413 73 0
-413 132 0
413 -21 -73 -132 0
-414 25 0
-414 79 0
-414 138 0
414 -25 -79 -138 0
-415 29 0
-415 85 0
-415 144 0
415 -29 -85 -144 0
-416 33 0
-416 91 0
-416 150 0
416 -33 -91 -150 0
-417 37 0
-417 97 0
-417 156 0
417 -37 -97 -156 0
-418 408 409 0
-418 -408 -409 0
418 -408 409 0
418 408 -409 0
-419 418 410 0
-419 -418 -410 0
419 -418 410 0
419 418 -410 0
-420 419 411 0
-420 -419 -411 0
420 -419 411 0
420 419 -411 0
-421 420 412 0
-421 -420 -412 0
421 -420 412 0
421 420 -412 0
-422 421 413 0
-422 -421 -413 0
422 -421 413 0
422 421 -413 0
-423 422 414 0
-423 -422 -414 0
423 -422 414 0
423 422 -414 0
-424 423 415 0
-424 -423 -415 0
424 -423 415 0
424 423 -415 0
-425 424 416 0
-425 -424 -416 0
425 -424 416 0
425 424 -416 0
-426 425 417 0
-426 -425 -417 0
426 -425 417 0
426 425 -417 0
-426 0
-427 1 0
-427 43 0
-427 103 0
427 -1 -43 -103 0
-428 5 0
-428 49 0
-428 109 0
428 -5 -49 -109 0
-429 9 0
-429 55 0
-429 115 0
429 -9 -55 -115 0
-430 13 0
-430 61 0
-430 121 0
430 -13 -61 -121 0
-431 17 0
-431 67 0
-431 127 0
431 -17 -67 -127 0
-432 21 0
-432 73 0
-432 133 0
432 -21 -73 -133 0
-433 25 0
-433 79 0
-433 139 0
433 -25 -79 -139 0
-434 29 0
-434 85 0
-434 145 0
434 -29 -85 -145 0
-435 33 0
-435 91 0
-435 151 0
435 -33 -91 -151 0
-436 37 0
-436 97 0
-436 157 0
436 -37 -97 -157 0
-437 427 428 0
-437 -427 -428 0
437 -427 428 0
437 427 -428 0
-438 437 429 0
-438 -437 -429 0
438 -437 429 0
438 437 -429 0
-439 438 430 0
-439 -438 -430 0
439 -438 430 0
439 438 -430 0
-440 439 431 0
-440 -439 -431 0
440 -439 431 0
440 439 -431 0
-441 440 432 0
-441 -440 -432 0
441 -440 432 0
441 440 -432 0
-442 441 433 0
-442 -441 -433 0
442 -441 433 0
442 441 -433 0
-443 442 434 0
-443 -442 -434 0
443 -442 434 0
443 442 -434 0
-444 443 435 0
-444 -443 -435 0
444 -443 435 0
444 443 -435 0
-445 444 436 0
-445 -444 -436 0
445 -444 436 0
445 444 -436 0
445 0
-446 1 0
-446 43 0
-446 104 0
446 -1 -43 -104 0
-447 5 0
-447 49 0
-447 110 0
447 -5 -49 -110 0
-448 9 0
-448 55 0
-448 116 0
448 -9 -55 -116 0
-449 13 0
-449 61 0
-449 122 0
449 -13 -61 -122 0
-450 17 0
-450 67 0
-450 128 0
450 -17 -67 -128 0
-451 21 0
-451 73 0
-451 134 0
451 -21 -73 -134 0
-452 25 0
-452 79 0
-452 140 0
452 -25 -79 -140 0
-453 29 0
-453 85 0
-453 146 0
453 -29 -85 -146 0
-454 33 0
-454 91 0
-454 152 0
454 -33 -91 -152 0
-455 37 0
-455 97 0
-455 158 0
455 -37 -97 -158 0
-456 446 447 0
-456 -446 -447 0
456 -446 447 0
456 446 -447 0
-457 456 448 0
-457 -456 -448 0
457 -456 448 0
457 456 -448 0
-458 457 449 0
-458 -457 -449 0
458 -457 449 0
458 457 -449 0
-459 458 450 0
-459 -458 -450 0
459 -458 450 0
459 458 -450 0
-460 459 451 0
-460 -459 -451 0
460 -459 451 0
460 459 -451 0
-461 460 452 0
-461 -460 -452 0
461 -460 452 0
461 460 -452 0
-462 461 453 0
-462 -461 -453 0
462 -461 453 0
462 461 -453 0
-463 462 454 0
-463 -462 -454 0
463 -462 454 0
463 462 -454 0
-464 463 455 0
-464 -463 -455 0
464 -463 455 0
464 463 -455 0
-464 0
-465 1 0
-465 43 0
-465 105 0
465 -1 -43 -105 0
-466 5 0
-466 49 0
-466 111 0
466 -5 -49 -111 0
-467 9 0
-467 55 0
-467 117 0
467 -9 -55 -117 0
-468 13 0
-468 61 0
-468 123 0
468 -13 -61 -123 0
-469 17 0
-469 67 0
-469 129 0
469 -17 -67 -129 0
-470 21 0
-470 73 0
-470 135 0
470 -21 -73 -135 0
-471 25 0
-471 79 0
-471 141 0
471 -25 -79 -141 0
-472 29 0
-472 85 0
-472 147 0
472 -29 -85 -147 0
-473 33 0
-473 91 0
-473 153 0
473 -33 -91 -153 0
-474 37 0
-474 97 0
-474 159 0
474 -37 -97 -159 0
-475 465 466 0
-475 -465 -466 0
475 -465 466 0
475 465 -466 0
-476 475 467 0
-476 -475 -467 0
476 -475 467 0
476 475 -467 0
-477 476 468 0
-477 -476 -468 0
477 -476 468 0
477 476 -468 0
-478 477 469 0
-478 -477 -469 0
478 -477 469 0
478 477 -469 0
-479 478 470 0
-479 -478 -470 0
479 -478 470 0
479 478 -470 0
-480 479 471 0
-480 -479 -471 0
480 -479 471 0
480 479 -471 0
-481 480 472 0
-481 -480 -472 0
481 -480 472 0
481 480 -472 0
-482 481 473 0
-482 -481 -473 0
482 -481 473 0
482 481 -473 0
-483 482 474 0
-483 -482 -474 0
483 -482 474 0
483 482 -474 0
-483 0
-484 1 0
-484 43 0
-484 106 0
484 -1 -43 -106 0
-485 5 0
-485 49 0
-485 112 0
485 -5 -49 -112 0
-486 9 0
-486 55 0
-486 118 0
486 -9 -55 -118 0
-487 13 0
-487 61 0
-487 124 0
487 -13 -61 -124 0
-488 17 0
-488 67 0
-488 130 0
488 -17 -67 -130 0
-489 21 0
-489 73 0
-489 136 0
489 -21 -73 -136 0
-490 25 0
-490 79 0
-490 142 0
490 -25 -79 -142 0
-491 29 0
-491 85 0
-491 148 0
491 -29 -85 -148 0
-492 33 0
-492 91 0
-492 154 0
492 -33 -91 -154 0
-493 37 0
-493 97 0
-493 160 0
493 -37 -97 -160 0
-494 484 485 0
-494 -484 -485 0
494 -484 485 0
494 484 -485 0
-495 494 486 0
-495 -494 -486 0
495 -494 486 0
495 494 -486 0
-496 495 487 0
-496 -495 -487 0
496 -495 487 0
496 495 -487 0
-497 496 488 0
-497 -496 -488 0
497 -496 488 0
497 496 -488 0
-498 497 489 0
-498 -497 -489 0
498 -497 489 0
498 497 -489 0
-499 498 490 0
-499 -498 -490 0
499 -498 490 0
499 498 -490 0
-500 499 491 0
-500 -499 -491 0
500 -499 491 0
500 499 -491 0
-501 500 492 0
-501 -500 -492 0
501 -500 492 0
501 500 -492 0
-502 501 493 0
-502 -501 -493 0
502 -501 493 0
502 501 -493 0
-502 0
-503 1 0
-503 44 0
-503 101 0
503 -1 -44 -101 0
-504 5 0
-504 50 0
-504 107 0
504 -5 -50 -107 0
-505 9 0
-505 56 0
-505 113 0
505 -9 -56 -113 0
-506 13 0
-506 62 0
-506 119 0
506 -13 -62 -119 0
-507 17 0
-507 68 0
-507 125 0
507 -17 -68 -125 0
-508 21 0
-508 74 0
-508 131 0
508 -21 -74 -131 0
-509 25 0
-509 80 0
-509 137 0
509 -25 -80 -137 0
-510 29 0
-510 86 0
-510 143 0
510 -29 -86 -143 0
-511 33 0
-511 92 0
-511 149 0
511 -33 -92 -149 0
-512 37 0
-512 98 0
-512 155 0
512 -37 -98 -155 0
-513 503 504 0
-513 -503 -504 0
513 -503 504 0
513 503 -504 0
-514 513 505 0
-514 -513 -505 0
514 -513 505 0
514 513 -505 0
-515 514 506 0
-515 -514 -506 0
515 -514 506 0
515 514 -506 0
-516 515 507 0
-516 -515 -507 0
516 -515 507 0
516 515 -507 0
-517 516 508 0
-517 -516 -508 0
517 -516 508 0
517 516 -508 0
-518 517 509 0
-518 -517 -509 0
518 -517 509 0
518 517 -509 0
-519 518 510 0
-519 -518 -510 0
519 -518 510 0
519 518 -510 0
-520 519 511 0
-520 -519 -511 0
520 -519 511 0
520 519 -511 0
-521 520 512 0
-521 -520 -512 0
521 -520 512 0
521 520 -512 0
-521 0
-522 1 0
-522 44 0
-522 102 0
522 -1 -44 -102 0
-523 5 0
-523 50 0
-523 108 0
523 -5 -50 -108 0
-524 9 0
-524 56 0
-524 114 0
524 -9 -56 -114 0
-525 13 0
-525 62 0
-525 120 0
525 -13 -62 -120 0
-526 17 0
-526 68 0
-526 126 0
526 -17 -68 -126 0
-527 21 0
-527 74 0
-527 132 0
527 -21 -74 -132 0
-528 25 0
-528 80 0
-528 138 0
528 -25 -80 -138 0
-529 29 0
-529 86 0
-529 144 0
529 -29 -86 -144 0
-530 33 0
-530 92 0
-530 150 0
530 -33 -92 -150 0
-531 37 0
-531 98 0
-531 156 0
531 -37 -98 -156 0
-532 522 523 0
-532 -522 -523 0
532 -522 523 0
532 522 -523 0
-533 532 524 0
-533 -532 -524 0
533 -532 524 0
533 532 -524 0
-534 533 525 0
-534 -533 -525 0
534 -533 525 0
534 533 -525 0
-535 534 526 0
-535 -534 -526 0
535 -534 526 0
535 534 -526 0
-536 535 527 0
-536 -535 -527 0
536 -535 527 0
536 535 -527 0
-537 536 528 0
-537 -536 -528 0
537 -536 528 0
537 536 -528 0
-538 537 529 0
-538 -537 -529 0
538 -537 529 0
538 537 -529 0
-539 538 530 0
-539 -538 -530 0
539 -538 530 0
539 538 -530 0
-540 539 531 0
-540 -539 -531 0
540 -539 531 0
540 539 -531 0
-540 0
-541 1 0
-541 44 0
-541 103 0
541 -1 -44 -103 0
-542 5 0
-542 50 0
-542 109 0
542 -5 -50 -109 0
-543 9 0
-543 56 0
-543 115 0
543 -9 -56 -115 0
-544 13 0
-544 62 0
-544 121 0
544 -13 -62 -121 0
-545 17 0
-545 68 0
-545 127 0
545 -17 -68 -127 0
-546 21 0
-546 74 0
-546 133 0
546 -21 -74 -133 0
-547 25 0
-547 80 0
-547 139 0
547 -25 -80 -139 0
-548 29 0
-548 86 0
-548 145 0
548 -29 -86 -145 0
-549 33 0
-549 92 0
-549 151 0
549 -33 -92 -151 0
-550 37 0
-550 98 0
-550 157 0
550 -37 -98 -157 0
-551 541 542 0
-551 -541 -542 0
551 -541 542 0
551 541 -542 0
-552 551 543 0
-552 -551 -543 0
552 -551 543 0
552 551 -543 0
-553 552 544 0
-553 -552 -544 0
553 -552 544 0
553 552 -544 0
-554 553 545 0
-554 -553 -545 0
554 -553 545 0
554 553 -545 0
-555 554 546 0
-555 -554 -546 0
555 -554 546 0
555 554 -546 0
-556 555 547 0
-556 -555 -547 0
556 -555 547 0
556 555 -547 0
-557 556 548 0
-557 -556 -548 0
557 -556 548 0
557 556 -548 0
-558 557 549 0
-558 -557 -549 0
558 -557 549 0
558 557 -549 0
-559 558 550 0
-559 -558 -550 0
559 -558 550 0
559 558 -550 0
-559 0
-560 1 0
-560 44 0
-560 104 0
560 -1 -44 -104 0
-561 5 0
-561 50 0
-561 110 0
561 -5 -50 -110 0
-562 9 0
-562 56 0
-562 116 0
562 -9 -56 -116 0
-563 13 0
-563 62 0
-563 122 0
563 -13 -62 -122 0
-564 17 0
-564 68 0
-564 128 0
564 -17 -68 -128 0
-565 21 0
-565 74 0
-565 134 0
565 -21 -74 -134 0
-566 25 0
-566 80 0
-566 140 0
566 -25 -80 -140 0
-567 29 0
-567 86 0
-567 146 0
567 -29 -86 -146 0
-568 33 0
-568 92 0
-568 152 0
568 -33 -92 -152 0
-569 37 0
-569 98 0
-569 158 0
569 -37 -98 -158 0
-570 560 561 0
-570 -560 -561 0
570 -560 561 0
570 560 -561 0
-571 570 562 0
-571 -570 -562 0
571 -570 562 0
571 570 -562 0
-572 571 563 0
-572 -571 -563 0
572 -571 563 0
572 571 -563 0
-573 572 564 0
-573 -572 -564 0
573 -572 564 0
573 572 -564 0
-574 573 565 0
-574 -573 -565 0
574 -573 565 0
574 573 -565 0
-575 574 566 0
-575 -574 -566 0
575 -574 566 0
575 574 -566 0
-576 575 567 0
-576 -575 -567 0
576 -575 567 0
576 575 -567 0
-577 576 568 0
-577 -576 -568 0
577 -576 568 0
577 576 -568 0
-578 577 569 0
-578 -577 -569 0
578 -577 569 0
578 577 -569 0
-578 0
-579 1 0
-579 44 0
-579 105 0
579 -1 -44 -105 0
-580 5 0
-580 50 0
-580 111 0
580 -5 -50 -111 0
-581 9 0
-581 56 0
-581 117 0
581 -9 -56 -117 0
-582 13 0
-582 62 0
-582 123 0
582 -13 -62 -123 0
-583 17 0
-583 68 0
-583 129 0
583 -17 -68 -129 0
-584 21 0
-584 74 0
-584 135 0
584 -21 -74 -135 0
-585 25 0
-585 80 0
-585 141 0
585 -25 -80 -141 0
-586 29 0
-586 86 0
-586 147 0
586 -29 -86 -147 0
-587 33 0
-587 92 0
-587 153 0
587 -33 -92 -153 0
-588 37 0
-588 98 0
-588 159 0
588 -37 -98 -159 0
-589 579 580 0
-589 -579 -580 0
589 -579 580 0
589 579 -580 0
-590 589 581 0
-590 -589 -581 0
590 -589 581 0
590 589 -581 0
-591 590 582 0
-591 -590 -582 0
591 -590 582 0
591 590 -582 0
-592 591 583 0
-592 -591 -583 0
592 -591 583 0
592 591 -583 0
-593 592 584 0
-593 -592 -584 0
593 -592 584 0
593 592 -584 0
-594 593 585 0
-594 -593 -585 0
594 -593 585 0
594 593 -585 0
-595 594 586 0
-595 -594 -586 0
595 -594 586 0
595 594 -586 0
-596 595 587 0
-596 -595 -587 0
596 -595 587 0
596 595 -587 0
-597 596 588 0
-597 -596 -588 0
597 -596 588 0
597 596 -588 0
-597 0
-598 1 0
-598 44 0
-598 106 0
598 -1 -44 -106 0
-599 5 0
-599 50 0
-599 112 0
599 -5 -50 -112 0
-600 9 0
-600 56 0
-600 118 0
600 -9 -56 -118 0
-601 13 0
-601 62 0
-601 124 0
601 -13 -62 -124 0
-602 17 0
-602 68 0
-602 130 0
602 -17 -68 -130 0
-603 21 0
-603 74 0
-603 136 0
603 -21 -74 -136 0
-604 25 0
-604 80 0
-604 142 0
604 -25 -80 -142 0
-605 29 0
-605 86 0
-605 148 0
605 -29 -86 -148 0
-606 33 0
-606 92 0
-606 154 0
606 -33 -92 -154 0
-607 37 0
-607 98 0
-607 160 0
607 -37 -98 -160 0
-608 598 599 0
-608 -598 -599 0
608 -598 599 0
608 598 -599 0
-609 608 600 0
-609 -608 -600 0
609 -608 600 0
609 608 -600 0
-610 609 601 0
-610 -609 -601 0
610 -609 601 0
610 609 -601 0
-611 610 602 0
-611 -610 -602 0
611 -610 602 0
611 610 -602 0
-612 611 603 0
-612 -611 -603 0
612 -611 603 0
612 611 -603 0
-613 612 604 0
-613 -612 -604 0
613 -612 604 0
613 612 -604 0
-614 613 605 0
-614 -613 -605 0
614 -613 605 0
614 613 -605 0
-615 614 606 0
-615 -614 -606 0
615 -614 606 0
615 614 -606 0
-616 615 607 0
-616 -615 -607 0
616 -615 607 0
616 615 -607 0
-616 0
-617 1 0
-617 45 0
-617 101 0
617 -1 -45 -101 0
-618 5 0
-618 51 0
-618 107 0
618 -5 -51 -107 0
-619 9 0
-619 57 0
-619 113 0
619 -9 -57 -113 0
-620 13 0
-620 63 0
-620 119 0
620 -13 -63 -119 0
-621 17 0
-621 69 0
-621 125 0
621 -17 -69 -125 0
-622 21 0
-622 75 0
-622 131 0
622 -21 -75 -131 0
-623 25 0
-623 81 0
-623 137 0
623 -25 -81 -137 0
-624 29 0
-624 87 0
-624 143 0
624 -29 -87 -143 0
-625 33 0
-625 93 0
-625 149 0
625 -33 -93 -149 0
-626 37 0
-626 99 0
-626 155 0
626 -37 -99 -155 0
-627 617 618 0
-627 -617 -618 0
627 -617 618 0
627 617 -618 0
-628 627 619 0
-628 -627 -619 0
628 -627 619 0
628 627 -619 0
-629 628 620 0
-629 -628 -620 0
629 -628 620 0
629 628 -620 0
-630 629 621 0
-630 -629 -621 0
630 -629 621 0
630 629 -621 0
-631 630 622 0
-631 -630 -622 0
631 -630 622 0
631 630 -622 0
-632 631 623 0
-632 -631 -623 0
632 -631 623 0
632 631 -623 0
-633 632 624 0
-633 -632 -624 0
633 -632 624 0
633 632 -624 0
-634 633 625 0
-634 -633 -625 0
634 -633 625 0
634 633 -625 0
-635 634 626 0
-635 -634 -626 0
635 -634 626 0
635 634 -626 0
-635 0
-636 1 0
-636 45 0
-636 102 0
636 -1 -45 -102 0
-637 5 0
-637 51 0
-637 108 0
637 -5 -51 -108 0
-638 9 0
-638 57 0
-638 114 0
638 -9 -57 -114 0
-639 13 0
-639 63 0
-639 120 0
639 -13 -63 -120 0
-640 17 0
-640 69 0
-640 126 0
640 -17 -69 -126 0
-641 21 0
-641 75 0
-641 132 0
641 -21 -75 -132 0
-642 25 0
-642 81 0
-642 138 0
642 -25 -81 -138 0
-643 29 0
-643 87 0
-643 144 0
643 -29 -87 -144 0
-644 33 0
-644 93 0
-644 150 0
644 -33 -93 -150 0
-645 37 0
-645 99 0
-645 156 0
645 -37 -99 -156 0
-646 636 637 0
-646 -636 -637 0
646 -636 637 0
646 636 -637 0
-647 646 638 0
-647 -646 -638 0
647 -646 638 0
647 646 -638 0
-648 647 639 0
-648 -647 -639 0
648 -647 639 0
648 647 -639 0
-649 648 640 0
-649 -648 -640 0
649 -648 640 0
649 648 -640 0
-650 649 641 0
-650 -649 -641 0
650 -649 641 0
650 649 -641 0
-651 650 642 0
-651 -650 -642 0
651 -650 642 0
651 650 -642 0
-652 651 643 0
-652 -651 -643 0
652 -651 643 0
652 651 -643 0
-653 652 644 0
-653 -652 -644 0
653 -652 644 0
653 652 -644 0
-654 653 645 0
-654 -653 -645 0
654 -653 645 0
654 653 -645 0
-654 0
-655 1 0
-655 45 0
-655 103 0
655 -1 -45 -103 0
-656 5 0
-656 51 0
-656 109 0
656 -5 -51 -109 0
-657 9 0
-657 57 0
-657 115 0
657 -9 -57 -115 0
-658 13 0
-658 63 0
-658 121 0
658 -13 -63 -121 0
-659 17 0
-659 69 0
-659 127 0
659 -17 -69 -127 0
-660 21 0
-660 75 0
-660 133 0
660 -21 -75 -133 0
-661 25 0
-661 81 0
-661 139 0
661 -25 -81 -139 0
-662 29 0
-662 87 0
-662 145 0
662 -29 -87 -145 0
-663 33 0
-663 93 0
-663 151 0
663 -33 -93 -151 0
-664 37 0
-664 99 0
-664 157 0
664 -37 -99 -157 0
-665 655 656 0
-665 -655 -656 0
665 -655 656 0
665 655 -656 0
-666 665 657 0
-666 -665 -657 0
666 -665 657 0
666 665 -657 0
-667 666 658 0
-667 -666 -658 0
667 -666 658 0
667 666 -658 0
-668 667 659 0
-668 -667 -659 0
668 -667 659 0
668 667 -659 0
-669 668 660 0
-669 -668 -660 0
669 -668 660 0
669 668 -660 0
-670 669 661 0
-670 -669 -661 0
670 -669 661 0
670 669 -661 0
-671 670 662 0
-671 -670 -662 0
671 -670 662 0
671 670 -662 0
-672 671 663 0
-672 -671 -663 0
672 -671 663 0
672 671 -663 0
-673 672 664 0
-673 -672 -664 0
673 -672 664 0
673 672 -664 0
-673 0
-674 1 0
-674 45 0
-674 104 0
674 -1 -45 -104 0
-675 5 0
-675 51 0
-675 110 0
675 -5 -51 -110 0
-676 9 0
-676 57 0
-676 116 0
676 -9 -57 -116 0
-677 13 0
-677 63 0
-677 122 0
677 -13 -63 -122 0
-678 17 0
-678 69 0
-678 128 0
678 -17 -69 -128 0
-679 21 0
-679 75 0
-679 134 0
679 -21 -75 -134 0
-680 25 0
-680 81 0
-680 140 0
680 -25 -81 -140 0
-681 29 0
-681 87 0
-681 146 0
681 -29 -87 -146 0
-682 33 0
-682 93 0
-682 152 0
682 -33 -93 -152 0
-683 37 0
-683 99 0
-683 158 0
683 -37 -99 -158 0
-684 674 675 0
-684 -674 -675 0
684 -674 675 0
684 674 -675 0
-685 684 676 0
-685 -684 -676 0
685 -684 676 0
685 684 -676 0
-686 685 677 0
-686 -685 -677 0
686 -685 677 0
686 685 -677 0
-687 686 678 0
-687 -686 -678 0
687 -686 678 0
687 686 -678 0
-688 687 679 0
-688 -687 -679 0
688 -687 679 0
688 687 -679 0
-689 688 680 0
-689 -688 -680 0
689 -688 680 0
689 688 -680 0
-690 689 681 0
-690 -689 -681 0
690 -689 681 0
690 689 -681 0
-691 690 682 0
-691 -690 -682 0
691 -690 682 0
691 690 -682 0
-692 691 683 0
-692 -691 -683 0
692 -691 683 0
692 691 -683 0
-692 0
-693 1 0
-693 45 0
-693 105 0
693 -1 -45 -105 0
-694 5 0
-694 51 0
-694 111 0
694 -5 -51 -111 0
-695 9 0
-695 57 0
-695 117 0
695 -9 -57 -117 0
-696 13 0
-696 63 0
-696 123 0
696 -13 -63 -123 0
-697 17 0
-697 69 0
-697 129 0
697 -17 -69 -129 0
-698 21 0
-698 75 0
-698 135 0
698 -21 -75 -135 0
-699 25 0
-699 81 0
-699 141 0
699 -25 -81 -141 0
-700 29 0
-700 87 0
-700 147 0
700 -29 -87 -147 0
-701 33 0
-701 93 0
-701 153 0
701 -33 -93 -153 0
-702 37 0
-702 99 0
-702 159 0
702 -37 -99 -159 0
-703 693 694 0
-703 -693 -694 0
703 -693 694 0
703 693 -694 0
-704 703 695 0
-704 -703 -695 0
704 -703 695 0
704 703 -695 0
-705 704 696 0
-705 -704 -696 0
705 -704 696 0
705 704 -696 0
-706 705 697 0
-706 -705 -697 0
706 -705 697 0
706 705 -697 0
-707 706 698 0
-707 -706 -698 0
707 -706 698 0
707 706 -698 0
-708 707 699 0
-708 -707 -699 0
708 -707 699 0
708 707 -699 0
-709 708 700 0
-709 -708 -700 0
709 -708 700 0
709 708 -700 0
-710 709 701 0
-710 -709 -701 0
710 -709 701 0
710 709 -701 0
-711 710 702 0
-711 -710 -702 0
711 -710 702 0
711 710 -702 0
-711 0
-712 1 0
-712 45 0
-712 106 0
712 -1 -45 -106 0
-713 5 0
-713 51 0
-713 112 0
713 -5 -51 -112 0
-714 9 0
-714 57 0
-714 118 0
714 -9 -57 -118 0
-715 13 0
-715 63 0
-715 124 0
715 -13 -63 -124 0
-716 17 0
-716 69 0
-716 130 0
716 -17 -69 -130 0
-717 21 0
-717 75 0
-717 136 0
717 -21 -75 -136 0
-718 25 0
-718 81 0
-718 142 0
718 -25 -81 -142 0
-719 29 0
-719 87 0
-719 148 0
719 -29 -87 -148 0
-720 33 0
-720 93 0
-720 154 0
720 -33 -93 -154 0
-721 37 0
-721 99 0
-721 160 0
721 -37 -99 -160 0
-722 712 713 0
-722 -712 -713 0
722 -712 713 0
722 712 -713 0
-723 722 714 0
-723 -722 -714 0
723 -722 714 0
723 722 -714 0
-724 723 715 0
-724 -723 -715 0
724 -723 715 0
724 723 -715 0
-725 724 716 0
-725 -724 -716 0
725 -724 716 0
725 724 -716 0
-726 725 717 0
-726 -725 -717 0
726 -725 717 0
726 725 -717 0
-727 726 718 0
-727 -726 -718 0
727 -726 718 0
727 726 -718 0
-728 727 719 0
-728 -727 -719 0
728 -727 719 0
728 727 -719 0
-729 728 720 0
-729 -728 -720 0
729 -728 720 0
729 728 -720 0
-730 729 721 0
-730 -729 -721 0
730 -729 721 0
730 729 -721 0
-730 0
-731 1 0
-731 46 0
-731 101 0
731 -1 -46 -101 0
-732 5 0
-732 52 0
-732 107 0
732 -5 -52 -107 0
-733 9 0
-733 58 0
-733 113 0
733 -9 -58 -113 0
-734 13 0
-734 64 0
-734 119 0
734 -13 -64 -119 0
-735 17 0
-735 70 0
-735 125 0
735 -17 -70 -125 0
-736 21 0
-736 76 0
-736 131 0
736 -21 -76 -131 0
-737 25 0
-737 82 0
-737 137 0
737 -25 -82 -137 0
-738 29 0
-738 88 0
-738 143 0
738 -29 -88 -143 0
-739 33 0
-739 94 0
-739 149 0
739 -33 -94 -149 0
-740 37 0
-740 100 0
-740 155 0
740 -37 -100 -155 0
-741 731 732 0
-741 -731 -732 0
741 -731 732 0
741 731 -732 0
-742 741 733 0
-742 -741 -733 0
742 -741 733 0
742 741 -733 0
-743 742 734 0
-743 -742 -734 0
743 -742 734 0
743 742 -734 0
-744 743 735 0
-744 -743 -735 0
744 -743 735 0
744 743 -735 0
-745 744 736 0
-745 -744 -736 0
745 -744 736 0
745 744 -736 0
-746 745 737 0
-746 -745 -737 0
746 -745 737 0
746 745 -737 0
-747 746 738 0
-747 -746 -738 0
747 -746 738 0
747 746 -738 0
-748 747 739 0
-748 -747 -739 0
748 -747 739 0
748 747 -739 0
-749 748 740 0
-749 -748 -740 0
749 -748 740 0
749 748 -740 0
-749 0
-750 1 0
-750 46 0
-750 102 0
750 -1 -46 -102 0
-751 5 0
-751 52 0
-751 108 0
751 -5 -52 -108 0
-752 9 0
-752 58 0
-752 114 0
752 -9 -58 -114 0
-753 13 0
-753 64 0
-753 120 0
753 -13 -64 -120 0
-754 17 0
-754 70 0
-754 126 0
754 -17 -70 -126 0
-755 21 0
-755 76 0
-755 132 0
755 -21 -76 -132 0
-756 25 0
-756 82 0
-756 138 0
756 -25 -82 -138 0
-757 29 0
-757 88 0
-757 144 0
757 -29 -88 -144 0
-758 33 0
-758 94 0
-758 150 0
758 -33 -94 -150 0
-759 37 0
-759 100 0
-759 156 0
759 -37 -100 -156 0
-760 750 751 0
-760 -750 -751 0
760 -750 751 0
760 750 -751 0
-761 760 752 0
-761 -760 -752 0
761 -760 752 0
761 760 -752 0
-762 761 753 0
-762 -761 -753 0
762 -761 753 0
762 761 -753 0
-763 762 754 0
-763 -762 -754 0
763 -762 754 0
763 762 -754 0
-764 763 755 0
-764 -763 -755 0
764 -763 755 0
764 763 -755 0
-765 764 756 0
-765 -764 -756 0
765 -764 756 0
765 764 -756 0
-766 765 757 0
-766 -765 -757 0
766 -765 757 0
766 765 -757 0
-767 766 758 0
-767 -766 -758 0
767 -766 758 0
767 766 -758 0
-768 767 759 0
-768 -767 -759 0
768 -767 759 0
768 767 -759 0
-768 0
-769 1 0
-769 46 0
-769 103 0
769 -1 -46 -103 0
-770 5 0
-770 52 0
-770 109 0
770 -5 -52 -109 0
-771 9 0
-771 58 0
-771 115 0
771 -9 -58 -115 0
-772 13 0
-772 64 0
-772 121 0
772 -13 -64 -121 0
-773 17 0
-773 70 0
-773 127 0
773 -17 -70 -127 0
-774 21 0
-774 76 0
-774 133 0
774 -21 -76 -133 0
-775 25 0
-775 82 0
-775 139 0
775 -25 -82 -139 0
-776 29 0
-776 88 0
-776 145 0
776 -29 -88 -145 0
-777 33 0
-777 94 0
-777 151 0
777 -33 -94 -151 0
-778 37 0
-778 100 0
-778 157 0
778 -37 -100 -157 0
-779 769 770 0
-779 -769 -770 0
779 -769 770 0
779 769 -770 0
-780 779 771 0
-780 -779 -771 0
780 -779 771 0
780 779 -771 0
-781 780 772 0
-781 -780 -772 0
781 -780 772 0
781 780 -772 0
-782 781 773 0
-782 -781 -773 0
782 -781 773 0
782 781 -773 0
-783 782 774 0
-783 -782 -774 0
783 -782 774 0
783 782 -774 0
-784 783 775 0
-784 -783 -775 0
784 -783 775 0
784 783 -775 0
-785 784 776 0
-785 -784 -776 0
785 -784 776 0
785 784 -776 0
-786 785 777 0
-786 -785 -777 0
786 -785 777 0
786 785 -777 0
-787 786 778 0
-787 -786 -778 0
787 -786 778 0
787 786 -778 0
-787 0
-788 1 0
-788 46 0
-788 104 0
788 -1 -46 -104 0
-789 5 0
-789 52 0
-789 110 0
789 -5 -52 -110 0
-790 9 0
-790 58 0
-790 116 0
790 -9 -58 -116 0
-791 13 0
-791 64 0
-791 122 0
791 -13 -64 -122 0
-792 17 0
-792 70 0
-792 128 0
792 -17 -70 -128 0
-793 21 0
-793 76 0
-793 134 0
793 -21 -76 -134 0
-794 25 0
-794 82 0
-794 140 0
794 -25 -82 -140 0
-795 29 0
-795 88 0
-795 146 0
795 -29 -88 -146 0
-796 33 0
-796 94 0
-796 152 0
796 -33 -94 -152 0
-797 37 0
-797 100 0
-797 158 0
797 -37 -100 -158 0
-798 788 789 0
-798 -788 -789 0
798 -788 789 0
798 788 -789 0
-799 798 790 0
-799 -798 -790 0
799 -798 790 0
799 798 -790 0
-800 799 791 0
-800 -799 -791 0
800 -799 791 0
800 799 -791 0
-801 800 792 0
-801 -800 -792 0
801 -800 792 0
801 800 -792 0
-802 801 793 0
-802 -801 -793 0
802 -801 793 0
802 801 -793 0
-803 802 794 0
-803 -802 -794 0
803 -802 794 0
803 802 -794 0
-804 803 795 0
-804 -803 -795 0
804 -803 795 0
804 803 -795 0
-805 804 796 0
-805 -804 -796 0
805 -804 796 0
805 804 -796 0
-806 805 797 0
-806 -805 -797 0
806 -805 797 0
806 805 -797 0
-806 0
-807 1 0
-807 46 0
-807 105 0
807 -1 -46 -105 0
-808 5 0
-808 52 0
-808 111 0
808 -5 -52 -111 0
-809 9 0
-809 58 0
-809 117 0
809 -9 -58 -117 0
-810 13 0
-810 64 0
-810 123 0
810 -13 -64 -123 0
-811 17 0
-811 70 0
-811 129 0
811 -17 -70 -129 0
-812 21 0
-812 76 0
-812 135 0
812 -21 -76 -135 0
-813 25 0
-813 82 0
-813 141 0
813 -25 -82 -141 0
-814 29 0
-814 88 0
-814 147 0
814 -29 -88 -147 0
-815 33 0
-815 94 0
-815 153 0
815 -33 -94 -153 0
-816 37 0
-816 100 0
-816 159 0
816 -37 -100 -159 0
-817 807 808 0
-817 -807 -808 0
817 -807 808 0
817 807 -808 0
-818 817 809 0
-818 -817 -809 0
818 -817 809 0
818 817 -809 0
-819 818 810 0
-819 -818 -810 0
819 -818 810 0
819 818 -810 0
-820 819 811 0
-820 -819 -811 0
820 -819 811 0
820 819 -811 0
-821 820 812 0
-821 -820 -812 0
821 -820 812 0
821 820 -812 0
-822 821 813 0
-822 -821 -813 0
822 -821 813 0
822 821 -813 0
-823 822 814 0
-823 -822 -814 0
823 -822 814 0
823 822 -814 0
-824 823 815 0
-824 -823 -815 0
824 -823 815 0
824 823 -815 0
-825 824 816 0
-825 -824 -816 0
825 -824 816 0
825 824 -816 0
-825 0
-826 1 0
-826 46 0
-826 106 0
826 -1 -46 -106 0
-827 5 0
-827 52 0
-827 112 0
827 -5 -52 -112 0
-828 9 0
-828 58 0
-828 118 0
828 -9 -58 -118 0
-829 13 0
-829 64 0
-829 124 0
829 -13 -64 -124 0
-830 17 0
-830 70 0
-830 130 0
830 -17 -70 -130 0
-831 21 0
-831 76 0
-831 136 0
831 -21 -76 -136 0
-832 25 0
-832 82 0
-832 142 0
832 -25 -82 -142 0
-833 29 0
-833 88 0
-833 148 0
833 -29 -88 -148 0
-834 33 0
-834 94 0
-834 154 0
834 -33 -94 -154 0
-835 37 0
-835 100 0
-835 160 0
835 -37 -100 -160 0
-836 826 827 0
-836 -826 -827 0
836 -826 827 0
836 826 -827 0
-837 836 828 0
-837 -836 -828 0
837 -836 828 0
837 836 -828 0
-838 837 829 0
-838 -837 -829 0
838 -837 829 0
838 837 -829 0
-839 838 830 0
-839 -838 -830 0
839 -838 830 0
839 838 -830 0
-840 839 831 0
-840 -839 -831 0
840 -839 831 0
840 839 -831 0
-841 840 832 0
-841 -840 -832 0
841 -840 832 0
841 840 -832 0
-842 841 833 0
-842 -841 -833 0
842 -841 833 0
842 841 -833 0
-843 842 834 0
-843 -842 -834 0
843 -842 834 0
843 842 -834 0
-844 843 835 0
-844 -843 -835 0
844 -843 835 0
844 843 -835 0
-844 0
-845 2 0
-845 41 0
-845 101 0
845 -2 -41 -101 0
-846 6 0
-846 47 0
-846 107 0
846 -6 -47 -107 0
-847 10 0
-847 53 0
-847 113 0
847 -10 -53 -113 0
-848 14 0
-848 59 0
-848 119 0
848 -14 -59 -119 0
-849 18 0
-849 65 0
-849 125 0
849 -18 -65 -125 0
-850 22 0
-850 71 0
-850 131 0
850 -22 -71 -131 0
-851 26 0
-851 77 0
-851 137 0
851 -26 -77 -137 0
-852 30 0
-852 83 0
-852 143 0
852 -30 -83 -143 0
-853 34 0
-853 89 0
-853 149 0
853 -34 -89 -149 0
-854 38 0
-854 95 0
-854 155 0
854 -38 -95 -155 0
-855 845 846 0
-855 -845 -846 0
855 -845 846 0
855 845 -846 0
-856 855 847 0
-856 -855 -847 0
856 -855 847 0
856 855 -847 0
-857 856 848 0
-857 -856 -848 0
857 -856 848 0
857 856 -848 0
-858 857 849 0
-858 -857 -849 0
858 -857 849 0
858 857 -849 0
-859 858 850 0
-859 -858 -850 0
859 -858 850 0
859 858 -850 0
-860 859 851 0
-860 -859 -851 0
860 -859 851 0
860 859 -851 0
-861 860 852 0
-861 -860 -852 0
861 -860 852 0
861 860 -852 0
-862 861 853 0
-862 -861 -853 0
862 -861 853 0
862 861 -853 0
-863 862 854 0
-863 -862 -854 0
863 -862 854 0
863 862 -854 0
-863 0
-864 2 0
-864 41 0
-864 102 0
864 -2 -41 -102 0
-865 6 0
-865 47 0
-865 108 0
865 -6 -47 -108 0
-866 10 0
-866 53 0
-866 114 0
866 -10 -53 -114 0
-867 14 0
-867 59 0
-867 120 0
867 -14 -59 -120 0
-868 18 0
-868 65 0
-868 126 0
868 -18 -65 -126 0
-869 22 0
-869 71 0
-869 132 0
869 -22 -71 -132 0
-870 26 0
-870 77 0
-870 138 0
870 -26 -77 -138 0
-871 30 0
-871 83 0
-871 144 0
871 -30 -83 -144 0
-872 34 0
-872 89 0
-872 150 0
872 -34 -89 -150 0
-873 38 0
-873 95 0
-873 156 0
873 -38 -95 -156 0
-874 864 865 0
-874 -864 -865 0
874 -864 865 0
874 864 -865 0
-875 874 866 0
-875 -874 -866 0
875 -874 866 0
875 874 -866 0
-876 875 867 0
-876 -875 -867 0
876 -875 867 0
876 875 -867 0
-877 876 868 0
-877 -876 -868 0
877 -876 868 0
877 876 -868 0
-878 877 869 0
-878 -877 -869 0
878 -877 869 0
878 877 -869 0
-879 878 870 0
-879 -878 -870 0
879 -878 870 0
879 878 -870 0
-880 879 871 0
-880 -879 -871 0
880 -879 871 0
880 879 -871 0
-881 880 872 0
-881 -880 -872 0
881 -880 872 0
881 880 -872 0
-882 881 873 0
-882 -881 -873 0
882 -881 873 0
882 881 -873 0
-882 0
-883 2 0
-883 41 0
-883 103 0
883 -2 -41 -103 0
-884 6 0
-884 47 0
-884 109 0
884 -6 -47 -109 0
-885 10 0
-885 53 0
-885 115 0
885 -10 -53 -115 0
-886 14 0
-886 59 0
-886 121 0
886 -14 -59 -121 0
-887 18 0
-887 65 0
-887 127 0
887 -18 -65 -127 0
-888 22 0
-888 71 0
-888 133 0
888 -22 -71 -133 0
-889 26 0
-889 77 0
-889 139 0
889 -26 -77 -139 0
-890 30 0
-890 83 0
-890 145 0
890 -30 -83 -145 0
-891 34 0
-891 89 0
-891 151 0
891 -34 -89 -151 0
-892 38 0
-892 95 0
-892 157 0
892 -38 -95 -157 0
-893 883 884 0
-893 -883 -884 0
893 -883 884 0
893 883 -884 0
-894 893 885 0
-894 -893 -885 0
894 -893 885 0
894 893 -885 0
-895 894 886 0
-895 -894 -886 0
895 -894 886 0
895 894 -886 0
-896 895 887 0
-896 -895 -887 0
896 -895 887 0
896 895 -887 0
-897 896 888 0
-897 -896 -888 0
897 -896 888 0
897 896 -888 0
-898 897 889 0
-898 -897 -889 0
898 -897 889 0
898 897 -889 0
-899 898 890 0
-899 -898 -890 0
899 -898 890 0
899 898 -890 0
-900 899 891 0
-900 -899 -891 0
900 -899 891 0
900 899 -891 0
-901 900 892 0
-901 -900 -892 0
901 -900 892 0
901 900 -892 0
-901 0
-902 2 0
-902 41 0
-902 104 0
902 -2 -41 -104 0
-903 6 0
-903 47 0
-903 110 0
903 -6 -47 -110 0
-904 10 0
-904 53 0
-904 116 0
904 -10 -53 -116 0
-905 14 0
-905 59 0
-905 122 0
905 -14 -59 -122 0
-906 18 0
-906 65 0
-906 128 0
906 -18 -65 -128 0
-907 22 0
-907 71 0
-907 134 0
907 -22 -71 -134 0
-908 26 0
-908 77 0
-908 140 0
908 -26 -77 -140 0
-909 30 0
-909 83 0
-909 146 0
909 -30 -83 -146 0
-910 34 0
-910 89 0
-910 152 0
910 -34 -89 -152 0
-911 38 0
-911 95 0
-911 158 0
911 -38 -95 -158 0
-912 902 903 0
-912 -902 -903 0
912 -902 903 0
912 902 -903 0
-913 912 904 0
-913 -912 -904 0
913 -912 904 0
913 912 -904 0
-914 913 905 0
-914 -913 -905 0
914 -913 905 0
914 913 -905 0
-915 914 906 0
-915 -914 -906 0
915 -914 906 0
915 914 -906 0
-916 915 907 0
-916 -915 -907 0
916 -915 907 0
916 915 -907 0
-917 916 908 0
-917 -916 -908 0
917 -916 908 0
917 916 -908 0
-918 917 909 0
-918 -917 -909 0
918 -917 909 0
918 917 -909 0
-919 918 910 0
-919 -918 -910 0
919 -918 910 0
919 918 -910 0
-920 919 911 0
-920 -919 -911 0
920 -919 911 0
920 919 -911 0
-920 0
-921 2 0
-921 41 0
-921 105 0
921 -2 -41 -105 0
-922 6 0
-922 47 0
-922 111 0
922 -6 -47 -111 0
-923 10 0
-923 53 0
-923 117 0
923 -10 -53 -117 0
-924 14 0
-924 59 0
-924 123 0
924 -14 -59 -123 0
-925 18 0
-925 65 0
-925 129 0
925 -18 -65 -129 0
-926 22 0
-926 71 0
-926 135 0
926 -22 -71 -135 0
-927 26 0
-927 77 0
-927 141 0
927 -26 -77 -141 0
-928 30 0
-928 83 0
-928 147 0
928 -30 -83 -147 0
-929 34 0
-929 89 0
-929 153 0
929 -34 -89 -153 0
-930 38 0
-930 95 0
-930 159 0
930 -38 -95 -159 0
-931 921 922 0
-931 -921 -922 0
931 -921 922 0
931 921 -922 0
-932 931 923 0
-932 -931 -923 0
932 -931 923 0
932 931 -923 0
-933 932 924 0
-933 -932 -924 0
933 -932 924 0
933 932 -924 0
-934 933 925 0
-934 -933 -925 0
934 -933 925 0
934 933 -925 0
-935 934 926 0
-935 -934 -926 0
935 -934 926 0
935 934 -926 0
-936 935 927 0
-936 -935 -927 0
936 -935 927 0
936 935 -927 0
-937 936 928 0
-937 -936 -928 0
937 -936 928 0
937 936 -928 0
-938 937 929 0
-938 -937 -929 0
938 -937 929 0
938 937 -929 0
-939 938 930 0
-939 -938 -930 0
939 -938 930 0
939 938 -930 0
-939 0
-940 2 0
-940 41 0
-940 106 0
940 -2 -41 -106 0
-941 6 0
-941 47 0
-941 112 0
941 -6 -47 -112 0
-942 10 0
-942 53 0
-942 118 0
942 -10 -53 -118 0
-943 14 0
-943 59 0
-943 124 0
943 -14 -59 -124 0
-944 18 0
-944 65 0
-944 130 0
944 -18 -65 -130 0
-945 22 0
-945 71 0
-945 136 0
945 -22 -71 -136 0
-946 26 0
-946 77 0
-946 142 0
946 -26 -77 -142 0
-947 30 0
-947 83 0
-947 148 0
947 -30 -83 -148 0
-948 34 0
-948 89 0
-948 154 0
948 -34 -89 -154 0
-949 38 0
-949 95 0
-949 160 0
949 -38 -95 -160 0
-950 940 941 0
-950 -940 -941 0
950 -940 941 0
950 940 -941 0
-951 950 942 0
-951 -950 -942 0
951 -950 942 0
951 950 -942 0
-952 951 943 0
-952 -951 -943 0
952 -951 943 0
952 951 -943 0
-953 952 944 0
-953 -952 -944 0
953 -952 944 0
953 952 -944 0
-954 953 945 0
-954 -953 -945 0
954 -953 945 0
954 953 -945 0
-955 954 946 0
-955 -954 -946 0
955 -954 946 0
955 954 -946 0
-956 955 947 0
-956 -955 -947 0
956 -955 947 0
956 955 -947 0
-957 956 948 0
-957 -956 -948 0
957 -956 948 0
957 956 -948 0
-958 957 949 0
-958 -957 -949 0
958 -957 949 0
958 957 -949 0
-958 0
-959 2 0
-959 42 0
-959 101 0
959 -2 -42 -101 0
-960 6 0
-960 48 0
-960 107 0
960 -6 -48 -107 0
-961 10 0
-961 54 0
-961 113 0
961 -10 -54 -113 0
-962 14 0
-962 60 0
-962 119 0
962 -14 -60 -119 0
-963 18 0
-963 66 0
-963 125 0
963 -18 -66 -125 0
-964 22 0
-964 72 0
-964 131 0
964 -22 -72 -131 0
-965 26 0
-965 78 0
-965 137 0
965 -26 -78 -137 0
-966 30 0
-966 84 0
-966 143 0
966 -30 -84 -143 0
-967 34 0
-967 90 0
-967 149 0
967 -34 -90 -149 0
-968 38 0
-968 96 0
-968 155 0
968 -38 -96 -155 0
-969 959 960 0
-969 -959 -960 0
969 -959 960 0
969 959 -960 0
-970 969 961 0
-970 -969 -961 0
970 -969 961 0
970 969 -961 0
-971 970 962 0
-971 -970 -962 0
971 -970 962 0
971 970 -962 0
-972 971 963 0
-972 -971 -963 0
972 -971 963 0
972 971 -963 0
-973 972 964 0
-973 -972 -964 0
973 -972 964 0
973 972 -964 0
-974 973 965 0
-974 -973 -965 0
974 -973 965 0
974 973 -965 0
-975 974 966 0
-975 -974 -966 0
975 -974 966 0
975 974 -966 0
-976 975 967 0
-976 -975 -967 0
976 -975 967 0
976 975 -967 0
-977 976 968 0
-977 -976 -968 0
977 -976 968 0
977 976 -968 0
-977 0
-978 2 0
-978 42 0
-978 102 0
978 -2 -42 -102 0
-979 6 0
-979 48 0
-979 108 0
979 -6 -48 -108 0
-980 10 0
-980 54 0
-980 114 0
980 -10 -54 -114 0
-981 14 0
-981 60 0
-981 120 0
981 -14 -60 -120 0
-982 18 0
-982 66 0
-982 126 0
982 -18 -66 -126 0
-983 22 0
-983 72 0
-983 132 0
983 -22 -72 -132 0
-984 26 0
-984 78 0
-984 138 0
984 -26 -78 -138 0
-985 30 0
-985 84 0
-985 144 0
985 -30 -84 -144 0
-986 34 0
-986 90 0
-986 150 0
986 -34 -90 -150 0
-987 38 0
-987 96 0
-987 156 0
987 -38 -96 -156 0
-988 978 979 0
-988 -978 -979 0
988 -978 979 0
988 978 -979 0
-989 988 980 0
-989 -988 -980 0
989 -988 980 0
989 988 -980 0
-990 989 981 0
-990 -989 -981 0
990 -989 981 0
990 989 -981 0
-991 990 982 0
-991 -990 -982 0
991 -990 982 0
991 990 -982 0
-992 991 983 0
-992 -991 -983 0
992 -991 983 0
992 991 -983 0
-993 992 984 0
-993 -992 -984 0
993 -992 984 0
993 992 -984 0
-994 993 985 0
-994 -993 -985 0
994 -993 985 0
994 993 -985 0
-995 994 986 0
-995 -994 -986 0
995 -994 986 0
995 994 -986 0
-996 995 987 0
-996 -995 -987 0
996 -995 987 0
996 995 -987 0
-996 0
-997 2 0
-997 42 0
-997 103 0
997 -2 -42 -103 0
-998 6 0
-998 48 0
-998 109 0
998 -6 -48 -109 0
-999 10 0
-999 54 0
-999 115 0
999 -10 -54 -115 0
-1000 14 0
-1000 60 0
-1000 121 0
1000 -14 -60 -121 0
-1001 18 0
-1001 66 0
-1001 127 0
1001 -18 -66 -127 0
-1002 22 0
-1002 72 0
-1002 133 0
1002 -22 -72 -133 0
-1003 26 0
-1003 78 0
-1003 139 0
1003 -26 -78 -139 0
-1004 30 0
-1004 84 0
-1004 145 0
1004 -30 -84 -145 0
-1005 34 0
-1005 90 0
-1005 151 0
1005 -34 -90 -151 0
-1006 38 0
-1006 96 0
-1006 157 0
1006 -38 -96 -157 0
-1007 997 998 0
-1007 -997 -998 0
1007 -997 998 0
1007 997 -998 0
-1008 1007 999 0
-1008 -1007 -999 0
1008 -1007 999 0
1008 1007 -999 0
-1009 1008 1000 0
-1009 -1008 -1000 0
1009 -1008 1000 0
1009 1008 -1000 0
-1010 1009 1001 0
-1010 -1009 -1001 0
1010 -1009 1001 0
1010 1009 -1001 0
-1011 1010 1002 0
-1011 -1010 -1002 0
1011 -1010 1002 0
1011 1010 -1002 0
-1012 1011 1003 0
-1012 -1011 -1003 0
1012 -1011 1003 0
1012 1011 -1003 0
-1013 1012 1004 0
-1013 -1012 -1004 0
1013 -1012 1004 0
1013 1012 -1004 0
-1014 1013 1005 0
-1014 -1013 -1005 0
1014 -1013 1005 0
1014 1013 -1005 0
-1015 1014 1006 0
-1015 -1014 -1006 0
1015 -1014 1006 0
1015 1014 -1006 0
-1015 0
-1016 2 0
-1016 42 0
-1016 104 0
1016 -2 -42 -104 0
-1017 6 0
-1017 48 0
-1017 110 0
1017 -6 -48 -110 0
-1018 10 0
-1018 54 0
-1018 116 0
1018 -10 -54 -116 0
-1019 14 0
-1019 60 0
-1019 122 0
1019 -14 -60 -122 0
-1020 18 0
-1020 66 0
-1020 128 0
1020 -18 -66 -128 0
-1021 22 0
-1021 72 0
-1021 134 0
1021 -22 -72 -134 0
-1022 26 0
-1022 78 0
-1022 140 0
1022 -26 -78 -140 0
-1023 30 0
-1023 84 0
-1023 146 0
1023 -30 -84 -146 0
-1024 34 0
-1024 90 0
-1024 152 0
1024 -34 -90 -152 0
-1025 38 0
-1025 96 0
-1025 158 0
1025 -38 -96 -158 0
-1026 1016 1017 0
-1026 -1016 -1017 0
1026 -1016 1017 0
1026 1016 -1017 0
-1027 1026 1018 0
-1027 -1026 -1018 0
1027 -1026 1018 0
1027 1026 -1018 0
-1028 1027 1019 0
-1028 -1027 -1019 0
1028 -1027 1019 0
1028 1027 -1019 0
-1029 1028 1020 0
-1029 -1028 -1020 0
1029 -1028 1020 0
1029 1028 -1020 0
-1030 1029 1021 0
-1030 -1029 -1021 0
1030 -1029 1021 0
1030 1029 -1021 0
-1031 1030 1022 0
-1031 -1030 -1022 0
1031 -1030 1022 0
1031 1030 -1022 0
-1032 1031 1023 0
-1032 -1031 -1023 0
1032 -1031 1023 0
1032 1031 -1023 0
-1033 1032 1024 0
-1033 -1032 -1024 0
1033 -1032 1024 0
1033 1032 -1024 0
-1034 1033 1025 0
-1034 -1033 -1025 0
1034 -1033 1025 0
1034 1033 -1025 0
-1034 0
-1035 2 0
-1035 42 0
-1035 105 0
1035 -2 -42 -105 0
-1036 6 0
-1036 48 0
-1036 111 0
1036 -6 -48 -111 0
-1037 10 0
-1037 54 0
-1037 117 0
1037 -10 -54 -117 0
-1038 14 0
-1038 60 0
-1038 123 0
1038 -14 -60 -123 0
-1039 18 0
-1039 66 0
-1039 129 0
1039 -18 -66 -129 0
-1040 22 0
-1040 72 0
-1040 135 0
1040 -22 -72 -135 0
-1041 26 0
-1041 78 0
-1041 141 0
1041 -26 -78 -141 0
-1042 30 0
-1042 84 0
-1042 147 0
1042 -30 -84 -147 0
-1043 34 0
-1043 90 0
-1043 153 0
1043 -34 -90 -153 0
-1044 38 0
-1044 96 0
-1044 159 0
1044 -38 -96 -159 0
-1045 1035 1036 0
-1045 -1035 -1036 0
1045 -1035 1036 0
1045 1035 -1036 0
-1046 1045 1037 0
-1046 -1045 -1037 0
1046 -1045 1037 0
1046 1045 -1037 0
-1047 1046 1038 0
-1047 -1046 -1038 0
1047 -1046 1038 0
1047 1046 -1038 0
-1048 1047 1039 0
-1048 -1047 -1039 0
1048 -1047 1039 0
1048 1047 -1039 0
-1049 1048 1040 0
-1049 -1048 -1040 0
1049 -1048 1040 0
1049 1048 -1040 0
-1050 1049 1041 0
-1050 -1049 -1041 0
1050 -1049 1041 0
1050 1049 -1041 0
-1051 1050 1042 0
-1051 -1050 -1042 0
1051 -1050 1042 0
1051 1050 -1042 0
-1052 1051 1043 0
-1052 -1051 -1043 0
1052 -1051 1043 0
1052 1051 -1043 0
-1053 1052 1044 0
-1053 -1052 -1044 0
1053 -1052 1044 0
1053 1052 -1044 0
-1053 0
-1054 2 0
-1054 42 0
-1054 106 0
1054 -2 -42 -106 0
-1055 6 0
-1055 48 0
-1055 112 0
1055 -6 -48 -112 0
-1056 10 0
-1056 54 0
-1056 118 0
1056 -10 -54 -118 0
-1057 14 0
-1057 60 0
-1057 124 0
1057 -14 -60 -124 0
-1058 18 0
-1058 66 0
-1058 130 0
1058 -18 -66 -130 0
-1059 22 0
-1059 72 0
-1059 136 0
1059 -22 -72 -136 0
-1060 26 0
-1060 78 0
-1060 142 0
1060 -26 -78 -142 0
-1061 30 0
-1061 84 0
-1061 148 0
1061 -30 -84 -148 0
-1062 34 0
-1062 90 0
-1062 154 0
1062 -34 -90 -154 0
-1063 38 0
-1063 96 0
-1063 160 0
1063 -38 -96 -160 0
-1064 1054 1055 0
-1064 -1054 -1055 0
1064 -1054 1055 0
1064 1054 -1055 0
-1065 1064 1056 0
-1065 -1064 -1056 0
1065 -1064 1056 0
1065 1064 -1056 0
-1066 1065 1057 0
-1066 -1065 -1057 0
1066 -1065 1057 0
1066 1065 -1057 0
-1067 1066 1058 0
-1067 -1066 -1058 0
1067 -1066 1058 0
1067 1066 -1058 0
-1068 1067 1059 0
-1068 -1067 -1059 0
1068 -1067 1059 0
1068 1067 -1059 0
-1069 1068 1060 0
-1069 -1068 -1060 0
1069 -1068 1060 0
1069 1068 -1060 0
-1070 1069 1061 0
-1070 -1069 -1061 0
1070 -1069 1061 0
1070 1069 -1061 0
-1071 1070 1062 0
-1071 -1070 -1062 0
1071 -1070 1062 0
1071 1070 -1062 0
-1072 1071 1063 0
-1072 -1071 -1063 0
1072 -1071 1063 0
1072 1071 -1063 0
-1072 0
-1073 2 0
-1073 43 0
-1073 101 0
1073 -2 -43 -101 0
-1074 6 0
-1074 49 0
-1074 107 0
1074 -6 -49 -107 0
-1075 10 0
-1075 55 0
-1075 113 0
1075 -10 -55 -113 0
-1076 14 0
-1076 61 0
-1076 119 0
1076 -14 -61 -119 0
-1077 18 0
-1077 67 0
-1077 125 0
1077 -18 -67 -125 0
-1078 22 0
-1078 73 0
-1078 131 0
1078 -22 -73 -131 0
-1079 26 0
-1079 79 0
-1079 137 0
1079 -26 -79 -137 0
-1080 30 0
-1080 85 0
-1080 143 0
1080 -30 -85 -143 0
-1081 34 0
-1081 91 0
-1081 149 0
1081 -34 -91 -149 0
-1082 38 0
-1082 97 0
-1082 155 0
1082 -38 -97 -155 0
-1083 1073 1074 0
-1083 -1073 -1074 0
1083 -1073 1074 0
1083 1073 -1074 0
-1084 1083 1075 0
-1084 -1083 -1075 0
1084 -1083 1075 0
1084 1083 -1075 0
-1085 1084 1076 0
-1085 -1084 -1076 0
1085 -1084 1076 0
1085 1084 -1076 0
-1086 1085 1077 0
-1086 -1085 -1077 0
1086 -1085 1077 0
1086 1085 -1077 0
-1087 1086 1078 0
-1087 -1086 -1078 0
1087 -1086 1078 0
1087 1086 -1078 0
-1088 1087 1079 0
-1088 -1087 -1079 0
1088 -1087 1079 0
1088 1087 -1079 0
-1089 1088 1080 0
-1089 -1088 -1080 0
1089 -1088 1080 0
1089 1088 -1080 0
-1090 1089 1081 0
-1090 -1089 -1081 0
1090 -1089 1081 0
1090 1089 -1081 0
-1091 1090 1082 0
-1091 -1090 -1082 0
1091 -1090 1082 0
1091 1090 -1082 0
-1091 0
-1092 2 0
-1092 43 0
-1092 102 0
1092 -2 -43 -102 0
-1093 6 0
-1093 49 0
-1093 108 0
1093 -6 -49 -108 0
-1094 10 0
-1094 55 0
-1094 114 0
1094 -10 -55 -114 0
-1095 14 0
-1095 61 0
-1095 120 0
1095 -14 -61 -120 0
-1096 18 0
-1096 67 0
-1096 126 0
1096 -18 -67 -126 0
-1097 22 0
-1097 73 0
-1097 132 0
1097 -22 -73 -132 0
-1098 26 0
-1098 79 0
-1098 138 0
1098 -26 -79 -138 0
-1099 30 0
-1099 85 0
-1099 144 0
1099 -30 -85 -144 0
-1100 34 0
-1100 91 0
-1100 150 0
1100 -34 -91 -150 0
-1101 38 0
-1101 97 0
-1101 156 0
1101 -38 -97 -156 0
-1102 1092 1093 0
-1102 -1092 -1093 0
1102 -1092 1093 0
1102 1092 -1093 0
-1103 1102 1094 0
-1103 -1102 -1094 0
1103 -1102 1094 0
1103 1102 -1094 0
-1104 1103 1095 0
-1104 -1103 -1095 0
1104 -1103 1095 0
1104 1103 -1095 0
-1105 1104 1096 0
-1105 -1104 -1096 0
1105 -1104 1096 0
1105 1104 -1096 0
-1106 1105 1097 0
-1106 -1105 -1097 0
1106 -1105 1097 0
1106 1105 -1097 0
-1107 1106 1098 0
-1107 -1106 -1098 0
1107 -1106 1098 0
1107 1106 -1098 0
-1108 1107 1099 0
-1108 -1107 -1099 0
1108 -1107 1099 0
1108 1107 -1099 0
-1109 1108 1100 0
-1109 -1108 -1100 0
1109 -1108 1100 0
1109 1108 -1100 0
-1110 1109 1101 0
-1110 -1109 -1101 0
1110 -1109 1101 0
1110 1109 -1101 0
-1110 0
-1111 2 0
-1111 43 0
-1111 103 0
1111 -2 -43 -103 0
-1112 6 0
-1112 49 0
-1112 109 0
1112 -6 -49 -109 0
-1113 10 0
-1113 55 0
-1113 115 0
1113 -10 -55 -115 0
-1114 14 0
-1114 61 0
-1114 121 0
1114 -14 -61 -121 0
-1115 18 0
-1115 67 0
-1115 127 0
1115 -18 -67 -127 0
-1116 22 0
-1116 73 0
-1116 133 0
1116 -22 -73 -133 0
-1117 26 0
-1117 79 0
-1117 139 0
1117 -26 -79 -139 0
-1118 30 0
-1118 85 0
-1118 145 0
1118 -30 -85 -145 0
-1119 34 0
-1119 91 0
-1119 151 0
1119 -34 -91 -151 0
-1120 38 0
-1120 97 0
-1120 157 0
1120 -38 -97 -157 0
-1121 1111 1112 0
-1121 -1111 -1112 0
1121 -1111 1112 0
1121 1111 -1112 0
-1122 1121 1113 0
-1122 -1121 -1113 0
1122 -1121 1113 0
1122 1121 -1113 0
-1123 1122 1114 0
-1123 -1122 -1114 0
1123 -1122 1114 0
1123 1122 -1114 0
-1124 1123 1115 0
-1124 -1123 -1115 0
1124 -1123 1115 0
1124 1123 -1115 0
-1125 1124 1116 0
-1125 -1124 -1116 0
1125 -1124 1116 0
1125 1124 -1116 0
-1126 1125 1117 0
-1126 -1125 -1117 0
1126 -1125 1117 0
1126 1125 -1117 0
-1127 1126 1118 0
-1127 -1126 -1118 0
1127 -1126 1118 0
1127 1126 -1118 0
-1128 1127 1119 0
-1128 -1127 -1119 0
1128 -1127 1119 0
1128 1127 -1119 0
-1129 1128 1120 0
-1129 -1128 -1120 0
1129 -1128 1120 0
1129 1128 -1120 0
-1129 0
-1130 2 0
-1130 43 0
-1130 104 0
1130 -2 -43 -104 0
-1131 6 0
-1131 49 0
-1131 110 0
1131 -6 -49 -110 0
-1132 10 0
-1132 55 0
-1132 116 0
1132 -10 -55 -116 0
-1133 14 0
-1133 61 0
-1133 122 0
1133 -14 -61 -122 0
-1134 18 0
-1134 67 0
-1134 128 0
1134 -18 -67 -128 0
-1135 22 0
-1135 73 0
-1135 134 0
1135 -22 -73 -134 0
-1136 26 0
-1136 79 0
-1136 140 0
1136 -26 -79 -140 0
-1137 30 0
-1137 85 0
-1137 146 0
1137 -30 -85 -146 0
-1138 34 0
-1138 91 0
-1138 152 0
1138 -34 -91 -152 0
-1139 38 0
-1139 97 0
-1139 158 0
1139 -38 -97 -158 0
-1140 1130 1131 0
-1140 -1130 -1131 0
1140 -1130 1131 0
1140 1130 -1131 0
-1141 1140 1132 0
-1141 -1140 -1132 0
1141 -1140 1132 0
1141 1140 -1132 0
-1142 1141 1133 0
-1142 -1141 -1133 0
1142 -1141 1133 0
1142 1141 -1133 0
-1143 1142 1134 0
-1143 -1142 -1134 0
1143 -1142 1134 0
1143 1142 -1134 0
-1144 1143 1135 0
-1144 -1143 -1135 0
1144 -1143 1135 0
1144 1143 -1135 0
-1145 1144 1136 0
-1145 -1144 -1136 0
1145 -1144 1136 0
1145 1144 -1136 0
-1146 1145 1137 0
-1146 -1145 -1137 0
1146 -1145 1137 0
1146 1145 -1137 0
-1147 1146 1138 0
-1147 -1146 -1138 0
1147 -1146 1138 0
1147 1146 -1138 0
-1148 1147 1139 0
-1148 -1147 -1139 0
1148 -1147 1139 0
1148 1147 -1139 0
-1148 0
-1149 2 0
-1149 43 0
-1149 105 0
1149 -2 -43 -105 0
-1150 6 0
-1150 49 0
-1150 111 0
1150 -6 -49 -111 0
-1151 10 0
-1151 55 0
-1151 117 0
1151 -10 -55 -117 0
-1152 14 0
-1152 61 0
-1152 123 0
1152 -14 -61 -123 0
-1153 18 0
-1153 67 0
-1153 129 0
1153 -18 -67 -129 0
-1154 22 0
-1154 73 0
-1154 135 0
1154 -22 -73 -135 0
-1155 26 0
-1155 79 0
-1155 141 0
1155 -26 -79 -141 0
-1156 30 0
-1156 85 0
-1156 147 0
1156 -30 -85 -147 0
-1157 34 0
-1157 91 0
-1157 153 0
1157 -34 -91 -153 0
-1158 38 0
-1158 97 0
-1158 159 0
1158 -38 -97 -159 0
-1159 1149 1150 0
-1159 -1149 -1150 0
1159 -1149 1150 0
1159 1149 -1150 0
-1160 1159 1151 0
-1160 -1159 -1151 0
1160 -1159 1151 0
1160 1159 -1151 0
-1161 1160 1152 0
-1161 -1160 -1152 0
1161 -1160 1152 0
1161 1160 -1152 0
-1162 1161 1153 0
-1162 -1161 -1153 0
1162 -1161 1153 0
1162 1161 -1153 0
-1163 1162 1154 0
-1163 -1162 -1154 0
1163 -1162 1154 0
1163 1162 -1154 0
-1164 1163 1155 0
-1164 -1163 -1155 0
1164 -1163 1155 0
1164 1163 -1155 0
-1165 1164 1156 0
-1165 -1164 -1156 0
1165 -1164 1156 0
1165 1164 -1156 0
-1166 1165 1157 0
-1166 -1165 -1157 0
1166 -1165 1157 0
1166 1165 -1157 0
-1167 1166 1158 0
-1167 -1166 -1158 0
1167 -1166 1158 0
1167 1166 -1158 0
-1167 0
-1168 2 0
-1168 43 0
-1168 106 0
1168 -2 -43 -106 0
-1169 6 0
-1169 49 0
-1169 112 0
1169 -6 -49 -112 0
-1170 10 0
-1170 55 0
-1170 118 0
1170 -10 -55 -118 0
-1171 14 0
-1171 61 0
-1171 124 0
1171 -14 -61 -124 0
-1172 18 0
-1172 67 0
-1172 130 0
1172 -18 -67 -130 0
-1173 22 0
-1173 73 0
-1173 136 0
1173 -22 -73 -136 0
-1174 26 0
-1174 79 0
-1174 142 0
1174 -26 -79 -142 0
-1175 30 0
-1175 85 0
-1175 148 0
1175 -30 -85 -148 0
-1176 34 0
-1176 91 0
-1176 154 0
1176 -34 -91 -154 0
-1177 38 0
-1177 97 0
-1177 160 0
1177 -38 -97 -160 0
-1178 1168 1169 0
-1178 -1168 -1169 0
1178 -1168 1169 0
1178 1168 -1169 0
-1179 1178 1170 0
-1179 -1178 -1170 0
1179 -1178 1170 0
1179 1178 -1170 0
-1180 1179 1171 0
-1180 -1179 -1171 0
1180 -1179 1171 0
1180 1179 -1171 0
-1181 1180 1172 0
-1181 -1180 -1172 0
1181 -1180 1172 0
1181 1180 -1172 0
-1182 1181 1173 0
-1182 -1181 -1173 0
1182 -1181 1173 0
1182 1181 -1173 0
-1183 1182 1174 0
-1183 -1182 -1174 0
1183 -1182 1174 0
1183 1182 -1174 0
-1184 1183 1175 0
-1184 -1183 -1175 0
1184 -1183 1175 0
1184 1183 -1175 0
-1185 1184 1176 0
-1185 -1184 -1176 0
1185 -1184 1176 0
1185 1184 -1176 0
-1186 1185 1177 0
-1186 -1185 -1177 0
1186 -1185 1177 0
1186 1185 -1177 0
-1186 0
-1187 2 0
-1187 44 0
-1187 101 0
1187 -2 -44 -101 0
-1188 6 0
-1188 50 0
-1188 107 0
1188 -6 -50 -107 0
-1189 10 0
-1189 56 0
-1189 113 0
1189 -10 -56 -113 0
-1190 14 0
-1190 62 0
-1190 119 0
1190 -14 -62 -119 0
-1191 18 0
-1191 68 0
-1191 125 0
1191 -18 -68 -125 0
-1192 22 0
-1192 74 0
-1192 131 0
1192 -22 -74 -131 0
-1193 26 0
-1193 80 0
-1193 137 0
1193 -26 -80 -137 0
-1194 30 0
-1194 86 0
-1194 143 0
1194 -30 -86 -143 0
-1195 34 0
-1195 92 0
-1195 149 0
1195 -34 -92 -149 0
-1196 38 0
-1196 98 0
-1196 155 0
1196 -38 -98 -155 0
-1197 1187 1188 0
-1197 -1187 -1188 0
1197 -1187 1188 0
1197 1187 -1188 0
-1198 1197 1189 0
-1198 -1197 -1189 0
1198 -1197 1189 0
1198 1197 -1189 0
-1199 1198 1190 0
-1199 -1198 -1190 0
1199 -1198 1190 0
1199 1198 -1190 0
-1200 1199 1191 0
-1200 -1199 -1191 0
1200 -1199 1191 0
1200 1199 -1191 0
-1201 1200 1192 0
-1201 -1200 -1192 0
1201 -1200 1192 0
1201 1200 -1192 0
-1202 1201 1193 0
-1202 -1201 -1193 0
1202 -1201 1193 0
1202 1201 -1193 0
-1203 1202 1194 0
-1203 -1202 -1194 0
1203 -1202 1194 0
1203 1202 -1194 0
-1204 1203 1195 0
-1204 -1203 -1195 0
1204 -1203 1195 0
1204 1203 -1195 0
-1205 1204 1196 0
-1205 -1204 -1196 0
1205 -1204 1196 0
1205 1204 -1196 0
1205 0
-1206 2 0
-1206 44 0
-1206 102 0
1206 -2 -44 -102 0
-1207 6 0
-1207 50 0
-1207 108 0
1207 -6 -50 -108 0
-1208 10 0
-1208 56 0
-1208 114 0
1208 -10 -56 -114 0
-1209 14 0
-1209 62 0
-1209 120 0
1209 -14 -62 -120 0
-1210 18 0
-1210 68 0
-1210 126 0
1210 -18 -68 -126 0
-1211 22 0
-1211 74 0
-1211 132 0
1211 -22 -74 -132 0
-1212 26 0
-1212 80 0
-1212 138 0
1212 -26 -80 -138 0
-1213 30 0
-1213 86 0
-1213 144 0
1213 -30 -86 -144 0
-1214 34 0
-1214 92 0
-1214 150 0
1214 -34 -92 -150 0
-1215 38 0
-1215 98 0
-1215 156 0
1215 -38 -98 -156 0
-1216 1206 1207 0
-1216 -1206 -1207 0
1216 -1206 1207 0
1216 1206 -1207 0
-1217 1216 1208 0
-1217 -1216 -1208 0
1217 -1216 1208 0
1217 1216 -1208 0
-1218 1217 1209 0
-1218 -1217 -1209 0
1218 -1217 1209 0
1218 1217 -1209 0
-1219 1218 1210 0
-1219 -1218 -1210 0
1219 -1218 1210 0
1219 1218 -1210 0
-1220 1219 1211 0
-1220 -1219 -1211 0
1220 -1219 1211 0
1220 1219 -1211 0
-1221 1220 1212 0
-1221 -1220 -1212 0
1221 -1220 1212 0
1221 1220 -1212 0
-1222 1221 1213 0
-1222 -1221 -1213 0
1222 -1221 1213 0
1222 1221 -1213 0
-1223 1222 1214 0
-1223 -1222 -1214 0
1223 -1222 1214 0
1223 1222 -1214 0
-1224 1223 1215 0
-1224 -1223 -1215 0
1224 -1223 1215 0
1224 1223 -1215 0
-1224 0
-1225 2 0
-1225 44 0
-1225 103 0
1225 -2 -44 -103 0
-1226 6 0
-1226 50 0
-1226 109 0
1226 -6 -50 -109 0
-1227 10 0
-1227 56 0
-1227 115 0
1227 -10 -56 -115 0
-1228 14 0
-1228 62 0
-1228 121 0
1228 -14 -62 -121 0
-1229 18 0
-1229 68 0
-1229 127 0
1229 -18 -68 -127 0
-1230 22 0
-1230 74 0
-1230 133 0
1230 -22 -74 -133 0
-1231 26 0
-1231 80 0
-1231 139 0
1231 -26 -80 -139 0
-1232 30 0
-1232 86 0
-1232 145 0
1232 -30 -86 -145 0
-1233 34 0
-1233 92 0
-1233 151 0
1233 -34 -92 -151 0
-1234 38 0
-1234 98 0
-1234 157 0
1234 -38 -98 -157 0
-1235 1225 1226 0
-1235 -1225 -1226 0
1235 -1225 1226 0
1235 1225 -1226 0
-1236 1235 1227 0
-1236 -1235 -1227 0
1236 -1235 1227 0
1236 1235 -1227 0
-1237 1236 1228 0
-1237 -1236 -1228 0
1237 -1236 1228 0
1237 1236 -1228 0
-1238 1237 1229 0
-1238 -1237 -1229 0
1238 -1237 1229 0
1238 1237 -1229 0
-1239 1238 1230 0
-1239 -1238 -1230 0
1239 -1238 1230 0
1239 1238 -1230 0
-1240 1239 1231 0
-1240 -1239 -1231 0
1240 -1239 1231 0
1240 1239 -1231 0
-1241 1240 1232 0
-1241 -1240 -1232 0
1241 -1240 1232 0
1241 1240 -1232 0
-1242 1241 1233 0
-1242 -1241 -1233 0
1242 -1241 1233 0
1242 1241 -1233 0
-1243 1242 1234 0
-1243 -1242 -1234 0
1243 -1242 1234 0
1243 1242 -1234 0
-1243 0
-1244 2 0
-1244 44 0
-1244 104 0
1244 -2 -44 -104 0
-1245 6 0
-1245 50 0
-1245 110 0
1245 -6 -50 -110 0
-1246 10 0
-1246 56 0
-1246 116 0
1246 -10 -56 -116 0
-1247 14 0
-1247 62 0
-1247 122 0
1247 -14 -62 -122 0
-1248 18 0
-1248 68 0
-1248 128 0
1248 -18 -68 -128 0
-1249 22 0
-1249 74 0
-1249 134 0
1249 -22 -74 -134 0
-1250 26 0
-1250 80 0
-1250 140 0
1250 -26 -80 -140 0
-1251 30 0
-1251 86 0
-1251 146 0
1251 -30 -86 -146 0
-1252 34 0
-1252 92 0
-1252 152 0
1252 -34 -92 -152 0
-1253 38 0
-1253 98 0
-1253 158 0
1253 -38 -98 -158 0
-1254 1244 1245 0
-1254 -1244 -1245 0
1254 -1244 1245 0
1254 1244 -1245 0
-1255 1254 1246 0
-1255 -1254 -1246 0
1255 -1254 1246 0
1255 1254 -1246 0
-1256 1255 1247 0
-1256 -1255 -1247 0
1256 -1255 1247 0
1256 1255 -1247 0
-1257 1256 1248 0
-1257 -1256 -1248 0
1257 -1256 1248 0
1257 1256 -1248 0
-1258 1257 1249 0
-1258 -1257 -1249 0
1258 -1257 1249 0
1258 1257 -1249 0
-1259 1258 1250 0
-1259 -1258 -1250 0
1259 -1258 1250 0
1259 1258 -1250 0
-1260 1259 1251 0
-1260 -1259 -1251 0
1260 -1259 1251 0
1260 1259 -1251 0
-1261 1260 1252 0
-1261 -1260 -1252 0
1261 -1260 1252 0
1261 1260 -1252 0
-1262 1261 1253 0
-1262 -1261 -1253 0
1262 -1261 1253 0
1262 1261 -1253 0
-1262 0
-1263 2 0
-1263 44 0
-1263 105 0
1263 -2 -44 -105 0
-1264 6 0
-1264 50 0
-1264 111 0
1264 -6 -50 -111 0
-1265 10 0
-1265 56 0
-1265 117 0
1265 -10 -56 -117 0
-1266 14 0
-1266 62 0
-1266 123 0
1266 -14 -62 -123 0
-1267 18 0
-1267 68 0
-1267 129 0
1267 -18 -68 -129 0
-1268 22 0
-1268 74 0
-1268 135 0
1268 -22 -74 -135 0
-1269 26 0
-1269 80 0
-1269 141 0
1269 -26 -80 -141 0
-1270 30 0
-1270 86 0
-1270 147 0
1270 -30 -86 -147 0
-1271 34 0
-1271 92 0
-1271 153 0
1271 -34 -92 -153 0
-1272 38 0
-1272 98 0
-1272 159 0
1272 -38 -98 -159 0
-1273 1263 1264 0
-1273 -1263 -1264 0
1273 -1263 1264 0
1273 1263 -1264 0
-1274 1273 1265 0
-1274 -1273 -1265 0
1274 -1273 1265 0
1274 1273 -1265 0
-1275 1274 1266 0
-1275 -1274 -1266 0
1275 -1274 1266 0
1275 1274 -1266 0
-1276 1275 1267 0
-1276 -1275 -1267 0
1276 -1275 1267 0
1276 1275 -1267 0
-1277 1276 1268 0
-1277 -1276 -1268 0
1277 -1276 1268 0
1277 1276 -1268 0
-1278 1277 1269 0
-1278 -1277 -1269 0
1278 -1277 1269 0
1278 1277 -1269 0
-1279 1278 1270 0
-1279 -1278 -1270 0
1279 -1278 1270 0
1279 1278 -1270 0
-1280 1279 1271 0
-1280 -1279 -1271 0
1280 -1279 1271 0
1280 1279 -1271 0
-1281 1280 1272 0
-1281 -1280 -1272 0
1281 -1280 1272 0
1281 1280 -1272 0
-1281 0
-1282 2 0
-1282 44 0
-1282 106 0
1282 -2 -44 -106 0
-1283 6 0
-1283 50 0
-1283 112 0
1283 -6 -50 -112 0
-1284 10 0
-1284 56 0
-1284 118 0
1284 -10 -56 -118 0
-1285 14 0
-1285 62 0
-1285 124 0
1285 -14 -62 -124 0
-1286 18 0
-1286 68 0
-1286 130 0
1286 -18 -68 -130 0
-1287 22 0
-1287 74 0
-1287 136 0
1287 -22 -74 -136 0
-1288 26 0
-1288 80 0
-1288 142 0
1288 -26 -80 -142 0
-1289 30 0
-1289 86 0
-1289 148 0
1289 -30 -86 -148 0
-1290 34 0
-1290 92 0
-1290 154 0
1290 -34 -92 -154 0
-1291 38 0
-1291 98 0
-1291 160 0
1291 -38 -98 -160 0
-1292 1282 1283 0
-1292 -1282 -1283 0
1292 -1282 1283 0
1292 1282 -1283 0
-1293 1292 1284 0
-1293 -1292 -1284 0
1293 -1292 1284 0
1293 1292 -1284 0
-1294 1293 1285 0
-1294 -1293 -1285 0
1294 -1293 1285 0
1294 1293 -1285 0
-1295 1294 1286 0
-1295 -1294 -1286 0
1295 -1294 1286 0
1295 1294 -1286 0
-1296 1295 1287 0
-1296 -1295 -1287 0
1296 -1295 1287 0
1296 1295 -1287 0
-1297 1296 1288 0
-1297 -1296 -1288 0
1297 -1296 1288 0
1297 1296 -1288 0
-1298 1297 1289 0
-1298 -1297 -1289 0
1298 -1297 1289 0
1298 1297 -1289 0
-1299 1298 1290 0
-1299 -1298 -1290 0
1299 -1298 1290 0
1299 1298 -1290 0
-1300 1299 1291 0
-1300 -1299 -1291 0
1300 -1299 1291 0
1300 1299 -1291 0
-1300 0
-1301 2 0
-1301 45 0
-1301 101 0
1301 -2 -45 -101 0
-1302 6 0
-1302 51 0
-1302 107 0
1302 -6 -51 -107 0
-1303 10 0
-1303 57 0
-1303 113 0
1303 -10 -57 -113 0
-1304 14 0
-1304 63 0
-1304 119 0
1304 -14 -63 -119 0
-1305 18 0
-1305 69 0
-1305 125 0
1305 -18 -69 -125 0
-1306 22 0
-1306 75 0
-1306 131 0
1306 -22 -75 -131 0
-1307 26 0
-1307 81 0
-1307 137 0
1307 -26 -81 -137 0
-1308 30 0
-1308 87 0
-1308 143 0
1308 -30 -87 -143 0
-1309 34 0
-1309 93 0
-1309 149 0
1309 -34 -93 -149 0
-1310 38 0
-1310 99 0
-1310 155 0
1310 -38 -99 -155 0
-1311 1301 1302 0
-1311 -1301 -1302 0
1311 -1301 1302 0
1311 1301 -1302 0
-1312 1311 1303 0
-1312 -1311 -1303 0
1312 -1311 1303 0
1312 1311 -1303 0
-1313 1312 1304 0
-1313 -1312 -1304 0
1313 -1312 1304 0
1313 1312 -1304 0
-1314 1313 1305 0
-1314 -1313 -1305 0
1314 -1313 1305 0
1314 1313 -1305 0
-1315 1314 1306 0
-1315 -1314 -1306 0
1315 -1314 1306 0
1315 1314 -1306 0
-1316 1315 1307 0
-1316 -1315 -1307 0
1316 -1315 1307 0
1316 1315 -1307 0
-1317 1316 1308 0
-1317 -1316 -1308 0
1317 -1316 1308 0
1317 1316 -1308 0
-1318 1317 1309 0
-1318 -1317 -1309 0
1318 -1317 1309 0
1318 1317 -1309 0
-1319 1318 1310 0
-1319 -1318 -1310 0
1319 -1318 1310 0
1319 1318 -1310 0
-1319 0
-1320 2 0
-1320 45 0
-1320 102 0
1320 -2 -45 -102 0
-1321 6 0
-1321 51 0
-1321 108 0
1321 -6 -51 -108 0
-1322 10 0
-1322 57 0
-1322 114 0
1322 -10 -57 -114 0
-1323 14 0
-1323 63 0
-1323 120 0
1323 -14 -63 -120 0
-1324 18 0
-1324 69 0
-1324 126 0
1324 -18 -69 -126 0
-1325 22 0
-1325 75 0
-1325 132 0
1325 -22 -75 -132 0
-1326 26 0
-1326 81 0
-1326 138 0
1326 -26 -81 -138 0
-1327 30 0
-1327 87 0
-1327 144 0
1327 -30 -87 -144 0
-1328 34 0
-1328 93 0
-1328 150 0
1328 -34 -93 -150 0
-1329 38 0
-1329 99 0
-1329 156 0
1329 -38 -99 -156 0
-1330 1320 1321 0
-1330 -1320 -1321 0
1330 -1320 1321 0
1330 1320 -1321 0
-1331 1330 1322 0
-1331 -1330 -1322 0
1331 -1330 1322 0
1331 1330 -1322 0
-1332 1331 1323 0
-1332 -1331 -1323 0
1332 -1331 1323 0
1332 1331 -1323 0
-1333 1332 1324 0
-1333 -1332 -1324 0
1333 -1332 1324 0
1333 1332 -1324 0
-1334 1333 1325 0
-1334 -1333 -1325 0
1334 -1333 1325 0
1334 1333 -1325 0
-1335 1334 1326 0
-1335 -1334 -1326 0
1335 -1334 1326 0
1335 1334 -1326 0
-1336 1335 1327 0
-1336 -1335 -1327 0
1336 -1335 1327 0
1336 1335 -1327 0
-1337 1336 1328 0
-1337 -1336 -1328 0
1337 -1336 1328 0
1337 1336 -1328 0
-1338 1337 1329 0
-1338 -1337 -1329 0
1338 -1337 1329 0
1338 1337 -1329 0
1338 0
-1339 2 0
-1339 45 0
-1339 103 0
1339 -2 -45 -103 0
-1340 6 0
-1340 51 0
-1340 109 0
1340 -6 -51 -109 0
-1341 10 0
-1341 57 0
-1341 115 0
1341 -10 -57 -115 0
-1342 14 0
-1342 63 0
-1342 121 0
1342 -14 -63 -121 0
-1343 18 0
-1343 69 0
-1343 127 0
1343 -18 -69 -127 0
-1344 22 0
-1344 75 0
-1344 133 0
1344 -22 -75 -133 0
-1345 26 0
-1345 81 0
-1345 139 0
1345 -26 -81 -139 0
-1346 30 0
-1346 87 0
-1346 145 0
1346 -30 -87 -145 0
-1347 34 0
-1347 93 0
-1347 151 0
1347 -34 -93 -151 0
-1348 38 0
-1348 99 0
-1348 157 0
1348 -38 -99 -157 0
-1349 1339 1340 0
-1349 -1339 -1340 0
1349 -1339 1340 0
1349 1339 -1340 0
-1350 1349 1341 0
-1350 -1349 -1341 0
1350 -1349 1341 0
1350 1349 -1341 0
-1351 1350 1342 0
-1351 -1350 -1342 0
1351 -1350 1342 0
1351 1350 -1342 0
-1352 1351 1343 0
-1352 -1351 -1343 0
1352 -1351 1343 0
1352 1351 -1343 0
-1353 1352 1344 0
-1353 -1352 -1344 0
1353 -1352 1344 0
1353 1352 -1344 0
-1354 1353 1345 0
-1354 -1353 -1345 0
1354 -1353 1345 0
1354 1353 -1345 0
-1355 1354 1346 0
-1355 -1354 -1346 0
1355 -1354 1346 0
1355 1354 -1346 0
-1356 1355 1347 0
-1356 -1355 -1347 0
1356 -1355 1347 0
1356 1355 -1347 0
-1357 1356 1348 0
-1357 -1356 -1348 0
1357 -1356 1348 0
1357 1356 -1348 0
-1357 0
-1358 2 0
-1358 45 0
-1358 104 0
1358 -2 -45 -104 0
-1359 6 0
-1359 51 0
-1359 110 0
1359 -6 -51 -110 0
-1360 10 0
-1360 57 0
-1360 116 0
1360 -10 -57 -116 0
-1361 14 0
-1361 63 0
-1361 122 0
1361 -14 -63 -122 0
-1362 18 0
-1362 69 0
-1362 128 0
1362 -18 -69 -128 0
-1363 22 0
-1363 75 0
-1363 134 0
1363 -22 -75 -134 0
-1364 26 0
-1364 81 0
-1364 140 0
1364 -26 -81 -140 0
-1365 30 0
-1365 87 0
-1365 146 0
1365 -30 -87 -146 0
-1366 34 0
-1366 93 0
-1366 152 0
1366 -34 -93 -152 0
-1367 38 0
-1367 99 0
-1367 158 0
1367 -38 -99 -158 0
-1368 1358 1359 0
-1368 -1358 -1359 0
1368 -1358 1359 0
1368 1358 -1359 0
-1369 1368 1360 0
-1369 -1368 -1360 0
1369 -1368 1360 0
1369 1368 -1360 0
-1370 1369 1361 0
-1370 -1369 -1361 0
1370 -1369 1361 0
1370 1369 -1361 0
-1371 1370 1362 0
-1371 -1370 -1362 0
1371 -1370 1362 0
1371 1370 -1362 0
-1372 1371 1363 0
-1372 -1371 -1363 0
1372 -1371 1363 0
1372 1371 -1363 0
-1373 1372 1364 0
-1373 -1372 -1364 0
1373 -1372 1364 0
1373 1372 -1364 0
-1374 1373 1365 0
-1374 -1373 -1365 0
1374 -1373 1365 0
1374 1373 -1365 0
-1375 1374 1366 0
-1375 -1374 -1366 0
1375 -1374 1366 0
1375 1374 -1366 0
-1376 1375 1367 0
-1376 -1375 -1367 0
1376 -1375 1367 0
1376 1375 -1367 0
-1376 0
-1377 2 0
-1377 45 0
-1377 105 0
1377 -2 -45 -105 0
-1378 6 0
-1378 51 0
-1378 111 0
1378 -6 -51 -111 0
-1379 10 0
-1379 57 0
-1379 117 0
1379 -10 -57 -117 0
-1380 14 0
-1380 63 0
-1380 123 0
1380 -14 -63 -123 0
-1381 18 0
-1381 69 0
-1381 129 0
1381 -18 -69 -129 0
-1382 22 0
-1382 75 0
-1382 135 0
1382 -22 -75 -135 0
-1383 26 0
-1383 81 0
-1383 141 0
1383 -26 -81 -141 0
-1384 30 0
-1384 87 0
-1384 147 0
1384 -30 -87 -147 0
-1385 34 0
-1385 93 0
-1385 153 0
1385 -34 -93 -153 0
-1386 38 0
-1386 99 0
-1386 159 0
1386 -38 -99 -159 0
-1387 1377 1378 0
-1387 -1377 -1378 0
1387 -1377 1378 0
1387 1377 -1378 0
-1388 1387 1379 0
-1388 -1387 -1379 0
1388 -1387 1379 0
1388 1387 -1379 0
-1389 1388 1380 0
-1389 -1388 -1380 0
1389 -1388 1380 0
1389 1388 -1380 0
-1390 1389 1381 0
-1390 -1389 -1381 0
1390 -1389 1381 0
1390 1389 -1381 0
-1391 1390 1382 0
-1391 -1390 -1382 0
1391 -1390 1382 0
1391 1390 -1382 0
-1392 1391 1383 0
-1392 -1391 -1383 0
1392 -1391 1383 0
1392 1391 -1383 0
-1393 1392 1384 0
-1393 -1392 -1384 0
1393 -1392 1384 0
1393 1392 -1384 0
-1394 1393 1385 0
-1394 -1393 -1385 0
1394 -1393 1385 0
1394 1393 -1385 0
-1395 1394 1386 0
-1395 -1394 -1386 0
1395 -1394 1386 0
1395 1394 -1386 0
-1395 0
-1396 2 0
-1396 45 0
-1396 106 0
1396 -2 -45 -106 0
-1397 6 0
-1397 51 0
-1397 112 0
1397 -6 -51 -112 0
-1398 10 0
-1398 57 0
-1398 118 0
1398 -10 -57 -118 0
-1399 14 0
-1399 63 0
-1399 124 0
1399 -14 -63 -124 0
-1400 18 0
-1400 69 0
-1400 130 0
1400 -18 -69 -130 0
-1401 22 0
-1401 75 0
-1401 136 0
1401 -22 -75 -136 0
-1402 26 0
-1402 81 0
-1402 142 0
1402 -26 -81 -142 0
-1403 30 0
-1403 87 0
-1403 148 0
1403 -30 -87 -148 0
-1404 34 0
-1404 93 0
-1404 154 0
1404 -34 -93 -154 0
-1405 38 0
-1405 99 0
-1405 160 0
1405 -38 -99 -160 0
-1406 1396 1397 0
-1406 -1396 -1397 0
1406 -1396 1397 0
1406 1396 -1397 0
-1407 1406 1398 0
-1407 -1406 -1398 0
1407 -1406 1398 0
1407 1406 -1398 0
-1408 1407 1399 0
-1408 -1407 -1399 0
1408 -1407 1399 0
1408 1407 -1399 0
-1409 1408 1400 0
-1409 -1408 -1400 0
1409 -1408 1400 0
1409 1408 -1400 0
-1410 1409 1401 0
-1410 -1409 -1401 0
1410 -1409 1401 0
1410 1409 -1401 0
-1411 1410 1402 0
-1411 -1410 -1402 0
1411 -1410 1402 0
1411 1410 -1402 0
-1412 1411 1403 0
-1412 -1411 -1403 0
1412 -1411 1403 0
1412 1411 -1403 0
-1413 1412 1404 0
-1413 -1412 -1404 0
1413 -1412 1404 0
1413 1412 -1404 0
-1414 1413 1405 0
-1414 -1413 -1405 0
1414 -1413 1405 0
1414 1413 -1405 0
-1414 0
-1415 2 0
-1415 46 0
-1415 101 0
1415 -2 -46 -101 0
-1416 6 0
-1416 52 0
-1416 107 0
1416 -6 -52 -107 0
-1417 10 0
-1417 58 0
-1417 113 0
1417 -10 -58 -113 0
-1418 14 0
-1418 64 0
-1418 119 0
1418 -14 -64 -119 0
-1419 18 0
-1419 70 0
-1419 125 0
1419 -18 -70 -125 0
-1420 22 0
-1420 76 0
-1420 131 0
1420 -22 -76 -131 0
-1421 26 0
-1421 82 0
-1421 137 0
1421 -26 -82 -137 0
-1422 30 0
-1422 88 0
-1422 143 0
1422 -30 -88 -143 0
-1423 34 0
-1423 94 0
-1423 149 0
1423 -34 -94 -149 0
-1424 38 0
-1424 100 0
-1424 155 0
1424 -38 -100 -155 0
-1425 1415 1416 0
-1425 -1415 -1416 0
1425 -1415 1416 0
1425 1415 -1416 0
-1426 1425 1417 0
-1426 -1425 -1417 0
1426 -1425 1417 0
1426 1425 -1417 0
-1427 1426 1418 0
-1427 -1426 -1418 0
1427 -1426 1418 0
1427 1426 -1418 0
-1428 1427 1419 0
-1428 -1427 -1419 0
1428 -1427 1419 0
1428 1427 -1419 0
-1429 1428 1420 0
-1429 -1428 -1420 0
1429 -1428 1420 0
1429 1428 -1420 0
-1430 1429 1421 0
-1430 -1429 -1421 0
1430 -1429 1421 0
1430 1429 -1421 0
-1431 1430 1422 0
-1431 -1430 -1422 0
1431 -1430 1422 0
1431 1430 -1422 0
-1432 1431 1423 0
-1432 -1431 -1423 0
1432 -1431 1423 0
1432 1431 -1423 0
-1433 1432 1424 0
-1433 -1432 -1424 0
1433 -1432 1424 0
1433 1432 -1424 0
-1433 0
-1434 2 0
-1434 46 0
-1434 102 0
1434 -2 -46 -102 0
-1435 6 0
-1435 52 0
-1435 108 0
1435 -6 -52 -108 0
-1436 10 0
-1436 58 0
-1436 114 0
1436 -10 -58 -114 0
-1437 14 0
-1437 64 0
-1437 120 0
1437 -14 -64 -120 0
-1438 18 0
-1438 70 0
-1438 126 0
1438 -18 -70 -126 0
-1439 22 0
-1439 76 0
-1439 132 0
1439 -22 -76 -132 0
-1440 26 0
-1440 82 0
-1440 138 0
1440 -26 -82 -138 0
-1441 30 0
-1441 88 0
-1441 144 0
1441 -30 -88 -144 0
-1442 34 0
-1442 94 0
-1442 150 0
1442 -34 -94 -150 0
-1443 38 0
-1443 100 0
-1443 156 0
1443 -38 -100 -156 0
-1444 1434 1435 0
-1444 -1434 -1435 0
1444 -1434 1435 0
1444 1434 -1435 0
-1445 1444 1436 0
-1445 -1444 -1436 0
1445 -1444 1436 0
1445 1444 -1436 0
-1446 1445 1437 0
-1446 -1445 -1437 0
1446 -1445 1437 0
1446 1445 -1437 0
-1447 1446 1438 0
-1447 -1446 -1438 0
1447 -1446 1438 0
1447 1446 -1438 0
-1448 1447 1439 0
-1448 -1447 -1439 0
1448 -1447 1439 0
1448 1447 -1439 0
-1449 1448 1440 0
-1449 -1448 -1440 0
1449 -1448 1440 0
1449 1448 -1440 0
-1450 1449 1441 0
-1450 -1449 -1441 0
1450 -1449 1441 0
1450 1449 -1441 0
-1451 1450 1442 0
-1451 -1450 -1442 0
1451 -1450 1442 0
1451 1450 -1442 0
-1452 1451 1443 0
-1452 -1451 -1443 0
1452 -1451 1443 0
1452 1451 -1443 0
-1452 0
-1453 2 0
-1453 46 0
-1453 103 0
1453 -2 -46 -103 0
-1454 6 0
-1454 52 0
-1454 109 0
1454 -6 -52 -109 0
-1455 10 0
-1455 58 0
-1455 115 0
1455 -10 -58 -115 0
-1456 14 0
-1456 64 0
-1456 121 0
1456 -14 -64 -121 0
-1457 18 0
-1457 70 0
-1457 127 0
1457 -18 -70 -127 0
-1458 22 0
-1458 76 0
-1458 133 0
1458 -22 -76 -133 0
-1459 26 0
-1459 82 0
-1459 139 0
1459 -26 -82 -139 0
-1460 30 0
-1460 88 0
-1460 145 0
1460 -30 -88 -145 0
-1461 34 0
-1461 94 0
-1461 151 0
1461 -34 -94 -151 0
-1462 38 0
-1462 100 0
-1462 157 0
1462 -38 -100 -157 0
-1463 1453 1454 0
-1463 -1453 -1454 0
1463 -1453 1454 0
1463 1453 -1454 0
-1464 1463 1455 0
-1464 -1463 -1455 0
1464 -1463 1455 0
1464 1463 -1455 0
-1465 1464 1456 0
-1465 -1464 -1456 0
1465 -1464 1456 0
1465 1464 -1456 0
-1466 1465 1457 0
-1466 -1465 -1457 0
1466 -1465 1457 0
1466 1465 -1457 0
-1467 1466 1458 0
-1467 -1466 -1458 0
1467 -1466 1458 0
1467 1466 -1458 0
-1468 1467 1459 0
-1468 -1467 -1459 0
1468 -1467 1459 0
1468 1467 -1459 0
-1469 1468 1460 0
-1469 -1468 -1460 0
1469 -1468 1460 0
1469 1468 -1460 0
-1470 1469 1461 0
-1470 -1469 -1461 0
1470 -1469 1461 0
1470 1469 -1461 0
-1471 1470 1462 0
-1471 -1470 -1462 0
1471 -1470 1462 0
1471 1470 -1462 0
1471 0
-1472 2 0
-1472 46 0
-1472 104 0
1472 -2 -46 -104 0
-1473 6 0
-1473 52 0
-1473 110 0
1473 -6 -52 -110 0
-1474 10 0
-1474 58 0
-1474 116 0
1474 -10 -58 -116 0
-1475 14 0
-1475 64 0
-1475 122 0
1475 -14 -64 -122 0
-1476 18 0
-1476 70 0
-1476 128 0
1476 -18 -70 -128 0
-1477 22 0
-1477 76 0
-1477 134 0
1477 -22 -76 -134 0
-1478 26 0
-1478 82 0
-1478 140 0
1478 -26 -82 -140 0
-1479 30 0
-1479 88 0
-1479 146 0
1479 -30 -88 -146 0
-1480 34 0
-1480 94 0
-1480 152 0
1480 -34 -94 -152 0
-1481 38 0
-1481 100 0
-1481 158 0
1481 -38 -100 -158 0
-1482 1472 1473 0
-1482 -1472 -1473 0
1482 -1472 1473 0
1482 1472 -1473 0
-1483 1482 1474 0
-1483 -1482 -1474 0
1483 -1482 1474 0
1483 1482 -1474 0
-1484 1483 1475 0
-1484 -1483 -1475 0
1484 -1483 1475 0
1484 1483 -1475 0
-1485 1484 1476 0
-1485 -1484 -1476 0
1485 -1484 1476 0
1485 1484 -1476 0
-1486 1485 1477 0
-1486 -1485 -1477 0
1486 -1485 1477 0
1486 1485 -1477 0
-1487 1486 1478 0
-1487 -1486 -1478 0
1487 -1486 1478 0
1487 1486 -1478 0
-1488 1487 1479 0
-1488 -1487 -1479 0
1488 -1487 1479 0
1488 1487 -1479 0
-1489 1488 1480 0
-1489 -1488 -1480 0
1489 -1488 1480 0
1489 1488 -1480 0
-1490 1489 1481 0
-1490 -1489 -1481 0
1490 -1489 1481 0
1490 1489 -1481 0
-1490 0
-1491 2 0
-1491 46 0
-1491 105 0
1491 -2 -46 -105 0
-1492 6 0
-1492 52 0
-1492 111 0
1492 -6 -52 -111 0
-1493 10 0
-1493 58 0
-1493 117 0
1493 -10 -58 -117 0
-1494 14 0
-1494 64 0
-1494 123 0
1494 -14 -64 -123 0
-1495 18 0
-1495 70 0
-1495 129 0
1495 -18 -70 -129 0
-1496 22 0
-1496 76 0
-1496 135 0
1496 -22 -76 -135 0
-1497 26 0
-1497 82 0
-1497 141 0
1497 -26 -82 -141 0
-1498 30 0
-1498 88 0
-1498 147 0
1498 -30 -88 -147 0
-1499 34 0
-1499 94 0
-1499 153 0
1499 -34 -94 -153 0
-1500 38 0
-1500 100 0
-1500 159 0
1500 -38 -100 -159 0
-1501 1491 1492 0
-1501 -1491 -1492 0
1501 -1491 1492 0
1501 1491 -1492 0
-1502 1501 1493 0
-1502 -1501 -1493 0
1502 -1501 1493 0
1502 1501 -1493 0
-1503 1502 1494 0
-1503 -1502 -1494 0
1503 -1502 1494 0
1503 1502 -1494 0
-1504 1503 1495 0
-1504 -1503 -1495 0
1504 -1503 1495 0
1504 1503 -1495 0
-1505 1504 1496 0
-1505 -1504 -1496 0
1505 -1504 1496 0
1505 1504 -1496 0
-1506 1505 1497 0
-1506 -1505 -1497 0
1506 -1505 1497 0
1506 1505 -1497 0
-1507 1506 1498 0
-1507 -1506 -1498 0
1507 -1506 1498 0
1507 1506 -1498 0
-1508 1507 1499 0
-1508 -1507 -1499 0
1508 -1507 1499 0
1508 1507 -1499 0
-1509 1508 1500 0
-1509 -1508 -1500 0
1509 -1508 1500 0
1509 1508 -1500 0
-1509 0
-1510 2 0
-1510 46 0
-1510 106 0
1510 -2 -46 -106 0
-1511 6 0
-1511 52 0
-1511 112 0
1511 -6 -52 -112 0
-1512 10 0
-1512 58 0
-1512 118 0
1512 -10 -58 -118 0
-1513 14 0
-1513 64 0
-1513 124 0
1513 -14 -64 -124 0
-1514 18 0
-1514 70 0
-1514 130 0
1514 -18 -70 -130 0
-1515 22 0
-1515 76 0
-1515 136 0
1515 -22 -76 -136 0
-1516 26 0
-1516 82 0
-1516 142 0
1516 -26 -82 -142 0
-1517 30 0
-1517 88 0
-1517 148 0
1517 -30 -88 -148 0
-1518 34 0
-1518 94 0
-1518 154 0
1518 -34 -94 -154 0
-1519 38 0
-1519 100 0
-1519 160 0
1519 -38 -100 -160 0
-1520 1510 1511 0
-1520 -1510 -1511 0
1520 -1510 1511 0
1520 1510 -1511 0
-1521 1520 1512 0
-1521 -1520 -1512 0
1521 -1520 1512 0
1521 1520 -1512 0
-1522 1521 1513 0
-1522 -1521 -1513 0
1522 -1521 1513 0
1522 1521 -1513 0
-1523 1522 1514 0
-1523 -1522 -1514 0
1523 -1522 1514 0
1523 1522 -1514 0
-1524 1523 1515 0
-1524 -1523 -1515 0
1524 -1523 1515 0
1524 1523 -1515 0
-1525 1524 1516 0
-1525 -1524 -1516 0
1525 -1524 1516 0
1525 1524 -1516 0
-1526 1525 1517 0
-1526 -1525 -1517 0
1526 -1525 1517 0
1526 1525 -1517 0
-1527 1526 1518 0
-1527 -1526 -1518 0
1527 -1526 1518 0
1527 1526 -1518 0
-1528 1527 1519 0
-1528 -1527 -1519 0
1528 -1527 1519 0
1528 1527 -1519 0
-1528 0
-1529 3 0
-1529 41 0
-1529 101 0
1529 -3 -41 -101 0
-1530 7 0
-1530 47 0
-1530 107 0
1530 -7 -47 -107 0
-1531 11 0
-1531 53 0
-1531 113 0
1531 -11 -53 -113 0
-1532 15 0
-1532 59 0
-1532 119 0
1532 -15 -59 -119 0
-1533 19 0
-1533 65 0
-1533 125 0
1533 -19 -65 -125 0
-1534 23 0
-1534 71 0
-1534 131 0
1534 -23 -71 -131 0
-1535 27 0
-1535 77 0
-1535 137 0
1535 -27 -77 -137 0
-1536 31 0
-1536 83 0
-1536 143 0
1536 -31 -83 -143 0
-1537 35 0
-1537 89 0
-1537 149 0
1537 -35 -89 -149 0
-1538 39 0
-1538 95 0
-1538 155 0
1538 -39 -95 -155 0
-1539 1529 1530 0
-1539 -1529 -1530 0
1539 -1529 1530 0
1539 1529 -1530 0
-1540 1539 1531 0
-1540 -1539 -1531 0
1540 -1539 1531 0
1540 1539 -1531 0
-1541 1540 1532 0
-1541 -1540 -1532 0
1541 -1540 1532 0
1541 1540 -1532 0
-1542 1541 1533 0
-1542 -1541 -1533 0
1542 -1541 1533 0
1542 1541 -1533 0
-1543 1542 1534 0
-1543 -1542 -1534 0
1543 -1542 1534 0
1543 1542 -1534 0
-1544 1543 1535 0
-1544 -1543 -1535 0
1544 -1543 1535 0
1544 1543 -1535 0
-1545 1544 1536 0
-1545 -1544 -1536 0
1545 -1544 1536 0
1545 1544 -1536 0
-1546 1545 1537 0
-1546 -1545 -1537 0
1546 -1545 1537 0
1546 1545 -1537 0
-1547 1546 1538 0
-1547 -1546 -1538 0
1547 -1546 1538 0
1547 1546 -1538 0
-1547 0
-1548 3 0
-1548 41 0
-1548 102 0
1548 -3 -41 -102 0
-1549 7 0
-1549 47 0
-1549 108 0
1549 -7 -47 -108 0
-1550 11 0
-1550 53 0
-1550 114 0
1550 -11 -53 -114 0
-1551 15 0
-1551 59 0
-1551 120 0
1551 -15 -59 -120 0
-1552 19 0
-1552 65 0
-1552 126 0
1552 -19 -65 -126 0
-1553 23 0
-1553 71 0
-1553 132 0
1553 -23 -71 -132 0
-1554 27 0
-1554 77 0
-1554 138 0
1554 -27 -77 -138 0
-1555 31 0
-1555 83 0
-1555 144 0
1555 -31 -83 -144 0
-1556 35 0
-1556 89 0
-1556 150 0
1556 -35 -89 -150 0
-1557 39 0
-1557 95 0
-1557 156 0
1557 -39 -95 -156 0
-1558 1548 1549 0
-1558 -1548 -1549 0
1558 -1548 1549 0
1558 1548 -1549 0
-1559 1558 1550 0
-1559 -1558 -1550 0
1559 -1558 1550 0
1559 1558 -1550 0
-1560 1559 1551 0
-1560 -1559 -1551 0
1560 -1559 1551 0
1560 1559 -1551 0
-1561 1560 1552 0
-1561 -1560 -1552 0
1561 -1560 1552 0
1561 1560 -1552 0
-1562 1561 1553 0
-1562 -1561 -1553 0
1562 -1561 1553 0
1562 1561 -1553 0
-1563 1562 1554 0
-1563 -1562 -1554 0
1563 -1562 1554 0
1563 1562 -1554 0
-1564 1563 1555 0
-1564 -1563 -1555 0
1564 -1563 1555 0
1564 1563 -1555 0
-1565 1564 1556 0
-1565 -1564 -1556 0
1565 -1564 1556 0
1565 1564 -1556 0
-1566 1565 1557 0
-1566 -1565 -1557 0
1566 -1565 1557 0
1566 1565 -1557 0
-1566 0
-1567 3 0
-1567 41 0
-1567 103 0
1567 -3 -41 -103 0
-1568 7 0
-1568 47 0
-1568 109 0
1568 -7 -47 -109 0
-1569 11 0
-1569 53 0
-1569 115 0
1569 -11 -53 -115 0
-1570 15 0
-1570 59 0
-1570 121 0
1570 -15 -59 -121 0
-1571 19 0
-1571 65 0
-1571 127 0
1571 -19 -65 -127 0
-1572 23 0
-1572 71 0
-1572 133 0
1572 -23 -71 -133 0
-1573 27 0
-1573 77 0
-1573 139 0
1573 -27 -77 -139 0
-1574 31 0
-1574 83 0
-1574 145 0
1574 -31 -83 -145 0
-1575 35 0
-1575 89 0
-1575 151 0
1575 -35 -89 -151 0
-1576 39 0
-1576 95 0
-1576 157 0
1576 -39 -95 -157 0
-1577 1567 1568 0
-1577 -1567 -1568 0
1577 -1567 1568 0
1577 1567 -1568 0
-1578 1577 1569 0
-1578 -1577 -1569 0
1578 -1577 1569 0
1578 1577 -1569 0
-1579 1578 1570 0
-1579 -1578 -1570 0
1579 -1578 1570 0
1579 1578 -1570 0
-1580 1579 1571 0
-1580 -1579 -1571 0
1580 -1579 1571 0
1580 1579 -1571 0
-1581 1580 1572 0
-1581 -1580 -1572 0
1581 -1580 1572 0
1581 1580 -1572 0
-1582 1581 1573 0
-1582 -1581 -1573 0
1582 -1581 1573 0
1582 1581 -1573 0
-1583 1582 1574 0
-1583 -1582 -1574 0
1583 -1582 1574 0
1583 1582 -1574 0
-1584 1583 1575 0
-1584 -1583 -1575 0
1584 -1583 1575 0
1584 1583 -1575 0
-1585 1584 1576 0
-1585 -1584 -1576 0
1585 -1584 1576 0
1585 1584 -1576 0
-1585 0
-1586 3 0
-1586 41 0
-1586 104 0
1586 -3 -41 -104 0
-1587 7 0
-1587 47 0
-1587 110 0
1587 -7 -47 -110 0
-1588 11 0
-1588 53 0
-1588 116 0
1588 -11 -53 -116 0
-1589 15 0
-1589 59 0
-1589 122 0
1589 -15 -59 -122 0
-1590 19 0
-1590 65 0
-1590 128 0
1590 -19 -65 -128 0
-1591 23 0
-1591 71 0
-1591 134 0
1591 -23 -71 -134 0
-1592 27 0
-1592 77 0
-1592 140 0
1592 -27 -77 -140 0
-1593 31 0
-1593 83 0
-1593 146 0
1593 -31 -83 -146 0
-1594 35 0
-1594 89 0
-1594 152 0
1594 -35 -89 -152 0
-1595 39 0
-1595 95 0
-1595 158 0
1595 -39 -95 -158 0
-1596 1586 1587 0
-1596 -1586 -1587 0
1596 -1586 1587 0
1596 1586 -1587 0
-1597 1596 1588 0
-1597 -1596 -1588 0
1597 -1596 1588 0
1597 1596 -1588 0
-1598 1597 1589 0
-1598 -1597 -1589 0
1598 -1597 1589 0
1598 1597 -1589 0
-1599 1598 1590 0
-1599 -1598 -1590 0
1599 -1598 1590 0
1599 1598 -1590 0
-1600 1599 1591 0
-1600 -1599 -1591 0
1600 -1599 1591 0
1600 1599 -1591 0
-1601 1600 1592 0
-1601 -1600 -1592 0
1601 -1600 1592 0
1601 1600 -1592 0
-1602 1601 1593 0
-1602 -1601 -1593 0
1602 -1601 1593 0
1602 1601 -1593 0
-1603 1602 1594 0
-1603 -1602 -1594 0
1603 -1602 1594 0
1603 1602 -1594 0
-1604 1603 1595 0
-1604 -1603 -1595 0
1604 -1603 1595 0
1604 1603 -1595 0
1604 0
-1605 3 0
-1605 41 0
-1605 105 0
1605 -3 -41 -105 0
-1606 7 0
-1606 47 0
-1606 111 0
1606 -7 -47 -111 0
-1607 11 0
-1607 53 0
-1607 117 0
1607 -11 -53 -117 0
-1608 15 0
-1608 59 0
-1608 123 0
1608 -15 -59 -123 0
-1609 19 0
-1609 65 0
-1609 129 0
1609 -19 -65 -129 0
-1610 23 0
-1610 71 0
-1610 135 0
1610 -23 -71 -135 0
-1611 27 0
-1611 77 0
-1611 141 0
1611 -27 -77 -141 0
-1612 31 0
-1612 83 0
-1612 147 0
1612 -31 -83 -147 0
-1613 35 0
-1613 89 0
-1613 153 0
1613 -35 -89 -153 0
-1614 39 0
-1614 95 0
-1614 159 0
1614 -39 -95 -159 0
-1615 1605 1606 0
-1615 -1605 -1606 0
1615 -1605 1606 0
1615 1605 -1606 0
-1616 1615 1607 0
-1616 -1615 -1607 0
1616 -1615 1607 0
1616 1615 -1607 0
-1617 1616 1608 0
-1617 -1616 -1608 0
1617 -1616 1608 0
1617 1616 -1608 0
-1618 1617 1609 0
-1618 -1617 -1609 0
1618 -1617 1609 0
1618 1617 -1609 0
-1619 1618 1610 0
-1619 -1618 -1610 0
1619 -1618 1610 0
1619 1618 -1610 0
-1620 1619 1611 0
-1620 -1619 -1611 0
1620 -1619 1611 0
1620 1619 -1611 0
-1621 1620 1612 0
-1621 -1620 -1612 0
1621 -1620 1612 0
1621 1620 -1612 0
-1622 1621 1613 0
-1622 -1621 -1613 0
1622 -1621 1613 0
1622 1621 -1613 0
-1623 1622 1614 0
-1623 -1622 -1614 0
1623 -1622 1614 0
1623 1622 -1614 0
-1623 0
-1624 3 0
-1624 41 0
-1624 106 0
1624 -3 -41 -106 0
-1625 7 0
-1625 47 0
-1625 112 0
1625 -7 -47 -112 0
-1626 11 0
-1626 53 0
-1626 118 0
1626 -11 -53 -118 0
-1627 15 0
-1627 59 0
-1627 124 0
1627 -15 -59 -124 0
-1628 19 0
-1628 65 0
-1628 130 0
1628 -19 -65 -130 0
-1629 23 0
-1629 71 0
-1629 136 0
1629 -23 -71 -136 0
-1630 27 0
-1630 77 0
-1630 142 0
1630 -27 -77 -142 0
-1631 31 0
-1631 83 0
-1631 148 0
1631 -31 -83 -148 0
-1632 35 0
-1632 89 0
-1632 154 0
1632 -35 -89 -154 0
-1633 39 0
-1633 95 0
-1633 160 0
1633 -39 -95 -160 0
-1634 1624 1625 0
-1634 -1624 -1625 0
1634 -1624 1625 0
1634 1624 -1625 0
-1635 1634 1626 0
-1635 -1634 -1626 0
1635 -1634 1626 0
1635 1634 -1626 0
-1636 1635 1627 0
-1636 -1635 -1627 0
1636 -1635 1627 0
1636 1635 -1627 0
-1637 1636 1628 0
-1637 -1636 -1628 0
1637 -1636 1628 0
1637 1636 -1628 0
-1638 1637 1629 0
-1638 -1637 -1629 0
1638 -1637 1629 0
1638 1637 -1629 0
-1639 1638 1630 0
-1639 -1638 -1630 0
1639 -1638 1630 0
1639 1638 -1630 0
-1640 1639 1631 0
-1640 -1639 -1631 0
1640 -1639 1631 0
1640 1639 -1631 0
-1641 1640 1632 0
-1641 -1640 -1632 0
1641 -1640 1632 0
1641 1640 -1632 0
-1642 1641 1633 0
-1642 -1641 -1633 0
1642 -1641 1633 0
1642 1641 -1633 0
-1642 0
-1643 3 0
-1643 42 0
-1643 101 0
1643 -3 -42 -101 0
-1644 7 0
-1644 48 0
-1644 107 0
1644 -7 -48 -107 0
-1645 11 0
-1645 54 0
-1645 113 0
1645 -11 -54 -113 0
-1646 15 0
-1646 60 0
-1646 119 0
1646 -15 -60 -119 0
-1647 19 0
-1647 66 0
-1647 125 0
1647 -19 -66 -125 0
-1648 23 0
-1648 72 0
-1648 131 0
1648 -23 -72 -131 0
-1649 27 0
-1649 78 0
-1649 137 0
1649 -27 -78 -137 0
-1650 31 0
-1650 84 0
-1650 143 0
1650 -31 -84 -143 0
-1651 35 0
-1651 90 0
-1651 149 0
1651 -35 -90 -149 0
-1652 39 0
-1652 96 0
-1652 155 0
1652 -39 -96 -155 0
-1653 1643 1644 0
-1653 -1643 -1644 0
1653 -1643 1644 0
1653 1643 -1644 0
-1654 1653 1645 0
-1654 -1653 -1645 0
1654 -1653 1645 0
1654 1653 -1645 0
-1655 1654 1646 0
-1655 -1654 -1646 0
1655 -1654 1646 0
1655 1654 -1646 0
-1656 1655 1647 0
-1656 -1655 -1647 0
1656 -1655 1647 0
1656 1655 -1647 0
-1657 1656 1648 0
-1657 -1656 -1648 0
1657 -1656 1648 0
1657 1656 -1648 0
-1658 1657 1649 0
-1658 -1657 -1649 0
1658 -1657 1649 0
1658 1657 -1649 0
-1659 1658 1650 0
-1659 -1658 -1650 0
1659 -1658 1650 0
1659 1658 -1650 0
-1660 1659 1651 0
-1660 -1659 -1651 0
1660 -1659 1651 0
1660 1659 -1651 0
-1661 1660 1652 0
-1661 -1660 -1652 0
1661 -1660 1652 0
1661 1660 -1652 0
-1661 0
-1662 3 0
-1662 42 0
-1662 102 0
1662 -3 -42 -102 0
-1663 7 0
-1663 48 0
-1663 108 0
1663 -7 -48 -108 0
-1664 11 0
-1664 54 0
-1664 114 0
1664 -11 -54 -114 0
-1665 15 0
-1665 60 0
-1665 120 0
1665 -15 -60 -120 0
-1666 19 0
-1666 66 0
-1666 126 0
1666 -19 -66 -126 0
-1667 23 0
-1667 72 0
-1667 132 0
1667 -23 -72 -132 0
-1668 27 0
-1668 78 0
-1668 138 0
1668 -27 -78 -138 0
-1669 31 0
-1669 84 0
-1669 144 0
1669 -31 -84 -144 0
-1670 35 0
-1670 90 0
-1670 150 0
1670 -35 -90 -150 0
-1671 39 0
-1671 96 0
-1671 156 0
1671 -39 -96 -156 0
-1672 1662 1663 0
-1672 -1662 -1663 0
1672 -1662 1663 0
1672 1662 -1663 0
-1673 1672 1664 0
-1673 -1672 -1664 0
1673 -1672 1664 0
1673 1672 -1664 0
-1674 1673 1665 0
-1674 -1673 -1665 0
1674 -1673 1665 0
1674 1673 -1665 0
-1675 1674 1666 0
-1675 -1674 -1666 0
1675 -1674 1666 0
1675 1674 -1666 0
-1676 1675 1667 0
-1676 -1675 -1667 0
1676 -1675 1667 0
1676 1675 -1667 0
-1677 1676 1668 0
-1677 -1676 -1668 0
1677 -1676 1668 0
1677 1676 -1668 0
-1678 1677 1669 0
-1678 -1677 -1669 0
1678 -1677 1669 0
1678 1677 -1669 0
-1679 1678 1670 0
-1679 -1678 -1670 0
1679 -1678 1670 0
1679 1678 -1670 0
-1680 1679 1671 0
-1680 -1679 -1671 0
1680 -1679 1671 0
1680 1679 -1671 0
-1680 0
-1681 3 0
-1681 42 0
-1681 103 0
1681 -3 -42 -103 0
-1682 7 0
-1682 48 0
-1682 109 0
1682 -7 -48 -109 0
-1683 11 0
-1683 54 0
-1683 115 0
1683 -11 -54 -115 0
-1684 15 0
-1684 60 0
-1684 121 0
1684 -15 -60 -121 0
-1685 19 0
-1685 66 0
-1685 127 0
1685 -19 -66 -127 0
-1686 23 0
-1686 72 0
-1686 133 0
1686 -23 -72 -133 0
-1687 27 0
-1687 78 0
-1687 139 0
1687 -27 -78 -139 0
-1688 31 0
-1688 84 0
-1688 145 0
1688 -31 -84 -145 0
-1689 35 0
-1689 90 0
-1689 151 0
1689 -35 -90 -151 0
-1690 39 0
-1690 96 0
-1690 157 0
1690 -39 -96 -157 0
-1691 1681 1682 0
-1691 -1681 -1682 0
1691 -1681 1682 0
1691 1681 -1682 0
-1692 1691 1683 0
-1692 -1691 -1683 0
1692 -1691 1683 0
1692 1691 -1683 0
-1693 1692 1684 0
-1693 -1692 -1684 0
1693 -1692 1684 0
1693 1692 -1684 0
-1694 1693 1685 0
-1694 -1693 -1685 0
1694 -1693 1685 0
1694 1693 -1685 0
-1695 1694 1686 0
-1695 -1694 -1686 0
1695 -1694 1686 0
1695 1694 -1686 0
-1696 1695 1687 0
-1696 -1695 -1687 0
1696 -1695 1687 0
1696 1695 -1687 0
-1697 1696 1688 0
-1697 -1696 -1688 0
1697 -1696 1688 0
1697 1696 -1688 0
-1698 1697 1689 0
-1698 -1697 -1689 0
1698 -1697 1689 0
1698 1697 -1689 0
-1699 1698 1690 0
-1699 -1698 -1690 0
1699 -1698 1690 0
1699 1698 -1690 0
-1699 0
-1700 3 0
-1700 42 0
-1700 104 0
1700 -3 -42 -104 0
-1701 7 0
-1701 48 0
-1701 110 0
1701 -7 -48 -110 0
-1702 11 0
-1702 54 0
-1702 116 0
1702 -11 -54 -116 0
-1703 15 0
-1703 60 0
-1703 122 0
1703 -15 -60 -122 0
-1704 19 0
-1704 66 0
-1704 128 0
1704 -19 -66 -128 0
-1705 23 0
-1705 72 0
-1705 134 0
1705 -23 -72 -134 0
-1706 27 0
-1706 78 0
-1706 140 0
1706 -27 -78 -140 0
-1707 31 0
-1707 84 0
-1707 146 0
1707 -31 -84 -146 0
-1708 35 0
-1708 90 0
-1708 152 0
1708 -35 -90 -152 0
-1709 39 0
-1709 96 0
-1709 158 0
1709 -39 -96 -158 0
-1710 1700 1701 0
-1710 -1700 -1701 0
1710 -1700 1701 0
1710 1700 -1701 0
-1711 1710 1702 0
-1711 -1710 -1702 0
1711 -1710 1702 0
1711 1710 -1702 0
-1712 1711 1703 0
-1712 -1711 -1703 0
1712 -1711 1703 0
1712 1711 -1703 0
-1713 1712 1704 0
-1713 -1712 -1704 0
1713 -1712 1704 0
1713 1712 -1704 0
-1714 1713 1705 0
-1714 -1713 -1705 0
1714 -1713 1705 0
1714 1713 -1705 0
-1715 1714 1706 0
-1715 -1714 -1706 0
1715 -1714 1706 0
1715 1714 -1706 0
-1716 1715 1707 0
-1716 -1715 -1707 0
1716 -1715 1707 0
1716 1715 -1707 0
-1717 1716 1708 0
-1717 -1716 -1708 0
1717 -1716 1708 0
1717 1716 -1708 0
-1718 1717 1709 0
-1718 -1717 -1709 0
1718 -1717 1709 0
1718 1717 -1709 0
-1718 0
-1719 3 0
-1719 42 0
-1719 105 0
1719 -3 -42 -105 0
-1720 7 0
-1720 48 0
-1720 111 0
1720 -7 -48 -111 0
-1721 11 0
-1721 54 0
-1721 117 0
1721 -11 -54 -117 0
-1722 15 0
-1722 60 0
-1722 123 0
1722 -15 -60 -123 0
-1723 19 0
-1723 66 0
-1723 129 0
1723 -19 -66 -129 0
-1724 23 0
-1724 72 0
-1724 135 0
1724 -23 -72 -135 0
-1725 27 0
-1725 78 0
-1725 141 0
1725 -27 -78 -141 0
-1726 31 0
-1726 84 0
-1726 147 0
1726 -31 -84 -147 0
-1727 35 0
-1727 90 0
-1727 153 0
1727 -35 -90 -153 0
-1728 39 0
-1728 96 0
-1728 159 0
1728 -39 -96 -159 0
-1729 1719 1720 0
-1729 -1719 -1720 0
1729 -1719 1720 0
1729 1719 -1720 0
-1730 1729 1721 0
-1730 -1729 -1721 0
1730 -1729 1721 0
1730 1729 -1721 0
-1731 1730 1722 0
-1731 -1730 -1722 0
1731 -1730 1722 0
1731 1730 -1722 0
-1732 1731 1723 0
-1732 -1731 -1723 0
1732 -1731 1723 0
1732 1731 -1723 0
-1733 1732 1724 0
-1733 -1732 -1724 0
1733 -1732 1724 0
1733 1732 -1724 0
-1734 1733 1725 0
-1734 -1733 -1725 0
1734 -1733 1725 0
1734 1733 -1725 0
-1735 1734 1726 0
-1735 -1734 -1726 0
1735 -1734 1726 0
1735 1734 -1726 0
-1736 1735 1727 0
-1736 -1735 -1727 0
1736 -1735 1727 0
1736 1735 -1727 0
-1737 1736 1728 0
-1737 -1736 -1728 0
1737 -1736 1728 0
1737 1736 -1728 0
1737 0
-1738 3 0
-1738 42 0
-1738 106 0
1738 -3 -42 -106 0
-1739 7 0
-1739 48 0
-1739 112 0
1739 -7 -48 -112 0
-1740 11 0
-1740 54 0
-1740 118 0
1740 -11 -54 -118 0
-1741 15 0
-1741 60 0
-1741 124 0
1741 -15 -60 -124 0
-1742 19 0
-1742 66 0
-1742 130 0
1742 -19 -66 -130 0
-1743 23 0
-1743 72 0
-1743 136 0
1743 -23 -72 -136 0
-1744 27 0
-1744 78 0
-1744 142 0
1744 -27 -78 -142 0
-1745 31 0
-1745 84 0
-1745 148 0
1745 -31 -84 -148 0
-1746 35 0
-1746 90 0
-1746 154 0
1746 -35 -90 -154 0
-1747 39 0
-1747 96 0
-1747 160 0
1747 -39 -96 -160 0
-1748 1738 1739 0
-1748 -1738 -1739 0
1748 -1738 1739 0
1748 1738 -1739 0
-1749 1748 1740 0
-1749 -1748 -1740 0
1749 -1748 1740 0
1749 1748 -1740 0
-1750 1749 1741 0
-1750 -1749 -1741 0
1750 -1749 1741 0
1750 1749 -1741 0
-1751 1750 1742 0
-1751 -1750 -1742 0
1751 -1750 1742 0
1751 1750 -1742 0
-1752 1751 1743 0
-1752 -1751 -1743 0
1752 -1751 1743 0
1752 1751 -1743 0
-1753 1752 1744 0
-1753 -1752 -1744 0
1753 -1752 1744 0
1753 1752 -1744 0
-1754 1753 1745 0
-1754 -1753 -1745 0
1754 -1753 1745 0
1754 1753 -1745 0
-1755 1754 1746 0
-1755 -1754 -1746 0
1755 -1754 1746 0
1755 1754 -1746 0
-1756 1755 1747 0
-1756 -1755 -1747 0
1756 -1755 1747 0
1756 1755 -1747 0
-1756 0
-1757 3 0
-1757 43 0
-1757 101 0
1757 -3 -43 -101 0
-1758 7 0
-1758 49 0
-1758 107 0
1758 -7 -49 -107 0
-1759 11 0
-1759 55 0
-1759 113 0
1759 -11 -55 -113 0
-1760 15 0
-1760 61 0
-1760 119 0
1760 -15 -61 -119 0
-1761 19 0
-1761 67 0
-1761 125 0
1761 -19 -67 -125 0
-1762 23 0
-1762 73 0
-1762 131 0
1762 -23 -73 -131 0
-1763 27 0
-1763 79 0
-1763 137 0
1763 -27 -79 -137 0
-1764 31 0
-1764 85 0
-1764 143 0
1764 -31 -85 -143 0
-1765 35 0
-1765 91 0
-1765 149 0
1765 -35 -91 -149 0
-1766 39 0
-1766 97 0
-1766 155 0
1766 -39 -97 -155 0
-1767 1757 1758 0
-1767 -1757 -1758 0
1767 -1757 1758 0
1767 1757 -1758 0
-1768 1767 1759 0
-1768 -1767 -1759 0
1768 -1767 1759 0
1768 1767 -1759 0
-1769 1768 1760 0
-1769 -1768 -1760 0
1769 -1768 1760 0
1769 1768 -1760 0
-1770 1769 1761 0
-1770 -1769 -1761 0
1770 -1769 1761 0
1770 1769 -1761 0
-1771 1770 1762 0
-1771 -1770 -1762 0
1771 -1770 1762 0
1771 1770 -1762 0
-1772 1771 1763 0
-1772 -1771 -1763 0
1772 -1771 1763 0
1772 1771 -1763 0
-1773 1772 1764 0
-1773 -1772 -1764 0
1773 -1772 1764 0
1773 1772 -1764 0
-1774 1773 1765 0
-1774 -1773 -1765 0
1774 -1773 1765 0
1774 1773 -1765 0
-1775 1774 1766 0
-1775 -1774 -1766 0
1775 -1774 1766 0
1775 1774 -1766 0
-1775 0
-1776 3 0
-1776 43 0
-1776 102 0
1776 -3 -43 -102 0
-1777 7 0
-1777 49 0
-1777 108 0
1777 -7 -49 -108 0
-1778 11 0
-1778 55 0
-1778 114 0
1778 -11 -55 -114 0
-1779 15 0
-1779 61 0
-1779 120 0
1779 -15 -61 -120 0
-1780 19 0
-1780 67 0
-1780 126 0
1780 -19 -67 -126 0
-1781 23 0
-1781 73 0
-1781 132 0
1781 -23 -73 -132 0
-1782 27 0
-1782 79 0
-1782 138 0
1782 -27 -79 -138 0
-1783 31 0
-1783 85 0
-1783 144 0
1783 -31 -85 -144 0
-1784 35 0
-1784 91 0
-1784 150 0
1784 -35 -91 -150 0
-1785 39 0
-1785 97 0
-1785 156 0
1785 -39 -97 -156 0
-1786 1776 1777 0
-1786 -1776 -1777 0
1786 -1776 1777 0
1786 1776 -1777 0
-1787 1786 1778 0
-1787 -1786 -1778 0
1787 -1786 1778 0
1787 1786 -1778 0
-1788 1787 1779 0
-1788 -1787 -1779 0
1788 -1787 1779 0
1788 1787 -1779 0
-1789 1788 1780 0
-1789 -1788 -1780 0
1789 -1788 1780 0
1789 1788 -1780 0
-1790 1789 1781 0
-1790 -1789 -1781 0
1790 -1789 1781 0
1790 1789 -1781 0
-1791 1790 1782 0
-1791 -1790 -1782 0
1791 -1790 1782 0
1791 1790 -1782 0
-1792 1791 1783 0
-1792 -1791 -1783 0
1792 -1791 1783 0
1792 1791 -1783 0
-1793 1792 1784 0
-1793 -1792 -1784 0
1793 -1792 1784 0
1793 1792 -1784 0
-1794 1793 1785 0
-1794 -1793 -1785 0
1794 -1793 1785 0
1794 1793 -1785 0
-1794 0
-1795 3 0
-1795 43 0
-1795 103 0
1795 -3 -43 -103 0
-1796 7 0
-1796 49 0
-1796 109 0
1796 -7 -49 -109 0
-1797 11 0
-1797 55 0
-1797 115 0
1797 -11 -55 -115 0
-1798 15 0
-1798 61 0
-1798 121 0
1798 -15 -61 -121 0
-1799 19 0
-1799 67 0
-1799 127 0
1799 -19 -67 -127 0
-1800 23 0
-1800 73 0
-1800 133 0
1800 -23 -73 -133 0
-1801 27 0
-1801 79 0
-1801 139 0
1801 -27 -79 -139 0
-1802 31 0
-1802 85 0
-1802 145 0
1802 -31 -85 -145 0
-1803 35 0
-1803 91 0
-1803 151 0
1803 -35 -91 -151 0
-1804 39 0
-1804 97 0
-1804 157 0
1804 -39 -97 -157 0
-1805 1795 1796 0
-1805 -1795 -1796 0
1805 -1795 1796 0
1805 1795 -1796 0
-1806 1805 1797 0
-1806 -1805 -1797 0
1806 -1805 1797 0
1806 1805 -1797 0
-1807 1806 1798 0
-1807 -1806 -1798 0
1807 -1806 1798 0
1807 1806 -1798 0
-1808 1807 1799 0
-1808 -1807 -1799 0
1808 -1807 1799 0
1808 1807 -1799 0
-1809 1808 1800 0
-1809 -1808 -1800 0
1809 -1808 1800 0
1809 1808 -1800 0
-1810 1809 1801 0
-1810 -1809 -1801 0
1810 -1809 1801 0
1810 1809 -1801 0
-1811 1810 1802 0
-1811 -1810 -1802 0
1811 -1810 1802 0
1811 1810 -1802 0
-1812 1811 1803 0
-1812 -1811 -1803 0
1812 -1811 1803 0
1812 1811 -1803 0
-1813 1812 1804 0
-1813 -1812 -1804 0
1813 -1812 1804 0
1813 1812 -1804 0
-1813 0
-1814 3 0
-1814 43 0
-1814 104 0
1814 -3 -43 -104 0
-1815 7 0
-1815 49 0
-1815 110 0
1815 -7 -49 -110 0
-1816 11 0
-1816 55 0
-1816 116 0
1816 -11 -55 -116 0
-1817 15 0
-1817 61 0
-1817 122 0
1817 -15 -61 -122 0
-1818 19 0
-1818 67 0
-1818 128 0
1818 -19 -67 -128 0
-1819 23 0
-1819 73 0
-1819 134 0
1819 -23 -73 -134 0
-1820 27 0
-1820 79 0
-1820 140 0
1820 -27 -79 -140 0
-1821 31 0
-1821 85 0
-1821 146 0
1821 -31 -85 -146 0
-1822 35 0
-1822 91 0
-1822 152 0
1822 -35 -91 -152 0
-1823 39 0
-1823 97 0
-1823 158 0
1823 -39 -97 -158 0
-1824 1814 1815 0
-1824 -1814 -1815 0
1824 -1814 1815 0
1824 1814 -1815 0
-1825 1824 1816 0
-1825 -1824 -1816 0
1825 -1824 1816 0
1825 1824 -1816 0
-1826 1825 1817 0
-1826 -1825 -1817 0
1826 -1825 1817 0
1826 1825 -1817 0
-1827 1826 1818 0
-1827 -1826 -1818 0
1827 -1826 1818 0
1827 1826 -1818 0
-1828 1827 1819 0
-1828 -1827 -1819 0
1828 -1827 1819 0
1828 1827 -1819 0
-1829 1828 1820 0
-1829 -1828 -1820 0
1829 -1828 1820 0
1829 1828 -1820 0
-1830 1829 1821 0
-1830 -1829 -1821 0
1830 -1829 1821 0
1830 1829 -1821 0
-1831 1830 1822 0
-1831 -1830 -1822 0
1831 -1830 1822 0
1831 1830 -1822 0
-1832 1831 1823 0
-1832 -1831 -1823 0
1832 -1831 1823 0
1832 1831 -1823 0
-1832 0
-1833 3 0
-1833 43 0
-1833 105 0
1833 -3 -43 -105 0
-1834 7 0
-1834 49 0
-1834 111 0
1834 -7 -49 -111 0
-1835 11 0
-1835 55 0
-1835 117 0
1835 -11 -55 -117 0
-1836 15 0
-1836 61 0
-1836 123 0
1836 -15 -61 -123 0
-1837 19 0
-1837 67 0
-1837 129 0
1837 -19 -67 -129 0
-1838 23 0
-1838 73 0
-1838 135 0
1838 -23 -73 -135 0
-1839 27 0
-1839 79 0
-1839 141 0
1839 -27 -79 -141 0
-1840 31 0
-1840 85 0
-1840 147 0
1840 -31 -85 -147 0
-1841 35 0
-1841 91 0
-1841 153 0
1841 -35 -91 -153 0
-1842 39 0
-1842 97 0
-1842 159 0
1842 -39 -97 -159 0
-1843 1833 1834 0
-1843 -1833 -1834 0
1843 -1833 1834 0
1843 1833 -1834 0
-1844 1843 1835 0
-1844 -1843 -1835 0
1844 -1843 1835 0
1844 1843 -1835 0
-1845 1844 1836 0
-1845 -1844 -1836 0
1845 -1844 1836 0
1845 1844 -1836 0
-1846 1845 1837 0
-1846 -1845 -1837 0
1846 -1845 1837 0
1846 1845 -1837 0
-1847 1846 1838 0
-1847 -1846 -1838 0
1847 -1846 1838 0
1847 1846 -1838 0
-1848 1847 1839 0
-1848 -1847 -1839 0
1848 -1847 1839 0
1848 1847 -1839 0
-1849 1848 1840 0
-1849 -1848 -1840 0
1849 -1848 1840 0
1849 1848 -1840 0
-1850 1849 1841 0
-1850 -1849 -1841 0
1850 -1849 1841 0
1850 1849 -1841 0
-1851 1850 1842 0
-1851 -1850 -1842 0
1851 -1850 1842 0
1851 1850 -1842 0
-1851 0
-1852 3 0
-1852 43 0
-1852 106 0
1852 -3 -43 -106 0
-1853 7 0
-1853 49 0
-1853 112 0
1853 -7 -49 -112 0
-1854 11 0
-1854 55 0
-1854 118 0
1854 -11 -55 -118 0
-1855 15 0
-1855 61 0
-1855 124 0
1855 -15 -61 -124 0
-1856 19 0
-1856 67 0
-1856 130 0
1856 -19 -67 -130 0
-1857 23 0
-1857 73 0
-1857 136 0
1857 -23 -73 -136 0
-1858 27 0
-1858 79 0
-1858 142 0
1858 -27 -79 -142 0
-1859 31 0
-1859 85 0
-1859 148 0
1859 -31 -85 -148 0
-1860 35 0
-1860 91 0
-1860 154 0
1860 -35 -91 -154 0
-1861 39 0
-1861 97 0
-1861 160 0
1861 -39 -97 -160 0
-1862 1852 1853 0
-1862 -1852 -1853 0
1862 -1852 1853 0
1862 1852 -1853 0
-1863 1862 1854 0
-1863 -1862 -1854 0
1863 -1862 1854 0
1863 1862 -1854 0
-1864 1863 1855 0
-1864 -1863 -1855 0
1864 -1863 1855 0
1864 1863 -1855 0
-1865 1864 1856 0
-1865 -1864 -1856 0
1865 -1864 1856 0
1865 1864 -1856 0
-1866 1865 1857 0
-1866 -1865 -1857 0
1866 -1865 1857 0
1866 1865 -1857 0
-1867 1866 1858 0
-1867 -1866 -1858 0
1867 -1866 1858 0
1867 1866 -1858 0
-1868 1867 1859 0
-1868 -1867 -1859 0
1868 -1867 1859 0
1868 1867 -1859 0
-1869 1868 1860 0
-1869 -1868 -1860 0
1869 -1868 1860 0
1869 1868 -1860 0
-1870 1869 1861 0
-1870 -1869 -1861 0
1870 -1869 1861 0
1870 1869 -1861 0
1870 0
-1871 3 0
-1871 44 0
-1871 101 0
1871 -3 -44 -101 0
-1872 7 0
-1872 50 0
-1872 107 0
1872 -7 -50 -107 0
-1873 11 0
-1873 56 0
-1873 113 0
1873 -11 -56 -113 0
-1874 15 0
-1874 62 0
-1874 119 0
1874 -15 -62 -119 0
-1875 19 0
-1875 68 0
-1875 125 0
1875 -19 -68 -125 0
-1876 23 0
-1876 74 0
-1876 131 0
1876 -23 -74 -131 0
-1877 27 0
-1877 80 0
-1877 137 0
1877 -27 -80 -137 0
-1878 31 0
-1878 86 0
-1878 143 0
1878 -31 -86 -143 0
-1879 35 0
-1879 92 0
-1879 149 0
1879 -35 -92 -149 0
-1880 39 0
-1880 98 0
-1880 155 0
1880 -39 -98 -155 0
-1881 1871 1872 0
-1881 -1871 -1872 0
1881 -1871 1872 0
1881 1871 -1872 0
-1882 1881 1873 0
-1882 -1881 -1873 0
1882 -1881 1873 0
1882 1881 -1873 0
-1883 1882 1874 0
-1883 -1882 -1874 0
1883 -1882 1874 0
1883 1882 -1874 0
-1884 1883 1875 0
-1884 -1883 -1875 0
1884 -1883 1875 0
1884 1883 -1875 0
-1885 1884 1876 0
-1885 -1884 -1876 0
1885 -1884 1876 0
1885 1884 -1876 0
-1886 1885 1877 0
-1886 -1885 -1877 0
1886 -1885 1877 0
1886 1885 -1877 0
-1887 1886 1878 0
-1887 -1886 -1878 0
1887 -1886 1878 0
1887 1886 -1878 0
-1888 1887 1879 0
-1888 -1887 -1879 0
1888 -1887 1879 0
1888 1887 -1879 0
-1889 1888 1880 0
-1889 -1888 -1880 0
1889 -1888 1880 0
1889 1888 -1880 0
-1889 0
-1890 3 0
-1890 44 0
-1890 102 0
1890 -3 -44 -102 0
-1891 7 0
-1891 50 0
-1891 108 0
1891 -7 -50 -108 0
-1892 11 0
-1892 56 0
-1892 114 0
1892 -11 -56 -114 0
-1893 15 0
-1893 62 0
-1893 120 0
1893 -15 -62 -120 0
-1894 19 0
-1894 68 0
-1894 126 0
1894 -19 -68 -126 0
-1895 23 0
-1895 74 0
-1895 132 0
1895 -23 -74 -132 0
-1896 27 0
-1896 80 0
-1896 138 0
1896 -27 -80 -138 0
-1897 31 0
-1897 86 0
-1897 144 0
1897 -31 -86 -144 0
-1898 35 0
-1898 92 0
-1898 150 0
1898 -35 -92 -150 0
-1899 39 0
-1899 98 0
-1899 156 0
1899 -39 -98 -156 0
-1900 1890 1891 0
-1900 -1890 -1891 0
1900 -1890 1891 0
1900 1890 -1891 0
-1901 1900 1892 0
-1901 -1900 -1892 0
1901 -1900 1892 0
1901 1900 -1892 0
-1902 1901 1893 0
-1902 -1901 -1893 0
1902 -1901 1893 0
1902 1901 -1893 0
-1903 1902 1894 0
-1903 -1902 -1894 0
1903 -1902 1894 0
1903 1902 -1894 0
-1904 1903 1895 0
-1904 -1903 -1895 0
1904 -1903 1895 0
1904 1903 -1895 0
-1905 1904 1896 0
-1905 -1904 -1896 0
1905 -1904 1896 0
1905 1904 -1896 0
-1906 1905 1897 0
-1906 -1905 -1897 0
1906 -1905 1897 0
1906 1905 -1897 0
-1907 1906 1898 0
-1907 -1906 -1898 0
1907 -1906 1898 0
1907 1906 -1898 0
-1908 1907 1899 0
-1908 -1907 -1899 0
1908 -1907 1899 0
1908 1907 -1899 0
-1908 0
-1909 3 0
-1909 44 0
-1909 103 0
1909 -3 -44 -103 0
-1910 7 0
-1910 50 0
-1910 109 0
1910 -7 -50 -109 0
-1911 11 0
-1911 56 0
-1911 115 0
1911 -11 -56 -115 0
-1912 15 0
-1912 62 0
-1912 121 0
1912 -15 -62 -121 0
-1913 19 0
-1913 68 0
-1913 127 0
1913 -19 -68 -127 0
-1914 23 0
-1914 74 0
-1914 133 0
1914 -23 -74 -133 0
-1915 27 0
-1915 80 0
-1915 139 0
1915 -27 -80 -139 0
-1916 31 0
-1916 86 0
-1916 145 0
1916 -31 -86 -145 0
-1917 35 0
-1917 92 0
-1917 151 0
1917 -35 -92 -151 0
-1918 39 0
-1918 98 0
-1918 157 0
1918 -39 -98 -157 0
-1919 1909 1910 0
-1919 -1909 -1910 0
1919 -1909 1910 0
1919 1909 -1910 0
-1920 1919 1911 0
-1920 -1919 -1911 0
1920 -1919 1911 0
1920 1919 -1911 0
-1921 1920 1912 0
-1921 -1920 -1912 0
1921 -1920 1912 0
1921 1920 -1912 0
-1922 1921 1913 0
-1922 -1921 -1913 0
1922 -1921 1913 0
1922 1921 -1913 0
-1923 1922 1914 0
-1923 -1922 -1914 0
1923 -1922 1914 0
1923 1922 -1914 0
-1924 1923 1915 0
-1924 -1923 -1915 0
1924 -1923 1915 0
1924 1923 -1915 0
-1925 1924 1916 0
-1925 -1924 -1916 0
1925 -1924 1916 0
1925 1924 -1916 0
-1926 1925 1917 0
-1926 -1925 -1917 0
1926 -1925 1917 0
1926 1925 -1917 0
-1927 1926 1918 0
-1927 -1926 -1918 0
1927 -1926 1918 0
1927 1926 -1918 0
-1927 0
-1928 3 0
-1928 44 0
-1928 104 0
1928 -3 -44 -104 0
-1929 7 0
-1929 50 0
-1929 110 0
1929 -7 -50 -110 0
-1930 11 0
-1930 56 0
-1930 116 0
1930 -11 -56 -116 0
-1931 15 0
-1931 62 0
-1931 122 0
1931 -15 -62 -122 0
-1932 19 0
-1932 68 0
-1932 128 0
1932 -19 -68 -128 0
-1933 23 0
-1933 74 0
-1933 134 0
1933 -23 -74 -134 0
-1934 27 0
-1934 80 0
-1934 140 0
1934 -27 -80 -140 0
-1935 31 0
-1935 86 0
-1935 146 0
1935 -31 -86 -146 0
-1936 35 0
-1936 92 0
-1936 152 0
1936 -35 -92 -152 0
-1937 39 0
-1937 98 0
-1937 158 0
1937 -39 -98 -158 0
-1938 1928 1929 0
-1938 -1928 -1929 0
1938 -1928 1929 0
1938 1928 -1929 0
-1939 1938 1930 0
-1939 -1938 -1930 0
1939 -1938 1930 0
1939 1938 -1930 0
-1940 1939 1931 0
-1940 -1939 -1931 0
1940 -1939 1931 0
1940 1939 -1931 0
-1941 1940 1932 0
-1941 -1940 -1932 0
1941 -1940 1932 0
1941 1940 -1932 0
-1942 1941 1933 0
-1942 -1941 -1933 0
1942 -1941 1933 0
1942 1941 -1933 0
-1943 1942 1934 0
-1943 -1942 -1934 0
1943 -1942 1934 0
1943 1942 -1934 0
-1944 1943 1935 0
-1944 -1943 -1935 0
1944 -1943 1935 0
1944 1943 -1935 0
-1945 1944 1936 0
-1945 -1944 -1936 0
1945 -1944 1936 0
1945 1944 -1936 0
-1946 1945 1937 0
-1946 -1945 -1937 0
1946 -1945 1937 0
1946 1945 -1937 0
-1946 0
-1947 3 0
-1947 44 0
-1947 105 0
1947 -3 -44 -105 0
-1948 7 0
-1948 50 0
-1948 111 0
1948 -7 -50 -111 0
-1949 11 0
-1949 56 0
-1949 117 0
1949 -11 -56 -117 0
-1950 15 0
-1950 62 0
-1950 123 0
1950 -15 -62 -123 0
-1951 19 0
-1951 68 0
-1951 129 0
1951 -19 -68 -129 0
-1952 23 0
-1952 74 0
-1952 135 0
1952 -23 -74 -135 0
-1953 27 0
-1953 80 0
-1953 141 0
1953 -27 -80 -141 0
-1954 31 0
-1954 86 0
-1954 147 0
1954 -31 -86 -147 0
-1955 35 0
-1955 92 0
-1955 153 0
1955 -35 -92 -153 0
-1956 39 0
-1956 98 0
-1956 159 0
1956 -39 -98 -159 0
-1957 1947 1948 0
-1957 -1947 -1948 0
1957 -1947 1948 0
1957 1947 -1948 0
-1958 1957 1949 0
-1958 -1957 -1949 0
1958 -1957 1949 0
1958 1957 -1949 0
-1959 1958 1950 0
-1959 -1958 -1950 0
1959 -1958 1950 0
1959 1958 -1950 0
-1960 1959 1951 0
-1960 -1959 -1951 0
1960 -1959 1951 0
1960 1959 -1951 0
-1961 1960 1952 0
-1961 -1960 -1952 0
1961 -1960 1952 0
1961 1960 -1952 0
-1962 1961 1953 0
-1962 -1961 -1953 0
1962 -1961 1953 0
1962 1961 -1953 0
-1963 1962 1954 0
-1963 -1962 -1954 0
1963 -1962 1954 0
1963 1962 -1954 0
-1964 1963 1955 0
-1964 -1963 -1955 0
1964 -1963 1955 0
1964 1963 -1955 0
-1965 1964 1956 0
-1965 -1964 -1956 0
1965 -1964 1956 0
1965 1964 -1956 0
-1965 0
-1966 3 0
-1966 44 0
-1966 106 0
1966 -3 -44 -106 0
-1967 7 0
-1967 50 0
-1967 112 0
1967 -7 -50 -112 0
-1968 11 0
-1968 56 0
-1968 118 0
1968 -11 -56 -118 0
-1969 15 0
-1969 62 0
-1969 124 0
1969 -15 -62 -124 0
-1970 19 0
-1970 68 0
-1970 130 0
1970 -19 -68 -130 0
-1971 23 0
-1971 74 0
-1971 136 0
1971 -23 -74 -136 0
-1972 27 0
-1972 80 0
-1972 142 0
1972 -27 -80 -142 0
-1973 31 0
-1973 86 0
-1973 148 0
1973 -31 -86 -148 0
-1974 35 0
-1974 92 0
-1974 154 0
1974 -35 -92 -154 0
-1975 39 0
-1975 98 0
-1975 160 0
1975 -39 -98 -160 0
-1976 1966 1967 0
-1976 -1966 -1967 0
1976 -1966 1967 0
1976 1966 -1967 0
-1977 1976 1968 0
-1977 -1976 -1968 0
1977 -1976 1968 0
1977 1976 -1968 0
-1978 1977 1969 0
-1978 -1977 -1969 0
1978 -1977 1969 0
1978 1977 -1969 0
-1979 1978 1970 0
-1979 -1978 -1970 0
1979 -1978 1970 0
1979 1978 -1970 0
-1980 1979 1971 0
-1980 -1979 -1971 0
1980 -1979 1971 0
1980 1979 -1971 0
-1981 1980 1972 0
-1981 -1980 -1972 0
1981 -1980 1972 0
1981 1980 -1972 0
-1982 1981 1973 0
-1982 -1981 -1973 0
1982 -1981 1973 0
1982 1981 -1973 0
-1983 1982 1974 0
-1983 -1982 -1974 0
1983 -1982 1974 0
1983 1982 -1974 0
-1984 1983 1975 0
-1984 -1983 -1975 0
1984 -1983 1975 0
1984 1983 -1975 0
-1984 0
-1985 3 0
-1985 45 0
-1985 101 0
1985 -3 -45 -101 0
-1986 7 0
-1986 51 0
-1986 107 0
1986 -7 -51 -107 0
-1987 11 0
-1987 57 0
-1987 113 0
1987 -11 -57 -113 0
-1988 15 0
-1988 63 0
-1988 119 0
1988 -15 -63 -119 0
-1989 19 0
-1989 69 0
-1989 125 0
1989 -19 -69 -125 0
-1990 23 0
-1990 75 0
-1990 131 0
1990 -23 -75 -131 0
-1991 27 0
-1991 81 0
-1991 137 0
1991 -27 -81 -137 0
-1992 31 0
-1992 87 0
-1992 143 0
1992 -31 -87 -143 0
-1993 35 0
-1993 93 0
-1993 149 0
1993 -35 -93 -149 0
-1994 39 0
-1994 99 0
-1994 155 0
1994 -39 -99 -155 0
-1995 1985 1986 0
-1995 -1985 -1986 0
1995 -1985 1986 0
1995 1985 -1986 0
-1996 1995 1987 0
-1996 -1995 -1987 0
1996 -1995 1987 0
1996 1995 -1987 0
-1997 1996 1988 0
-1997 -1996 -1988 0
1997 -1996 1988 0
1997 1996 -1988 0
-1998 1997 1989 0
-1998 -1997 -1989 0
1998 -1997 1989 0
1998 1997 -1989 0
-1999 1998 1990 0
-1999 -1998 -1990 0
1999 -1998 1990 0
1999 1998 -1990 0
-2000 1999 1991 0
-2000 -1999 -1991 0
2000 -1999 1991 0
2000 1999 -1991 0
-2001 2000 1992 0
-2001 -2000 -1992 0
2001 -2000 1992 0
2001 2000 -1992 0
-2002 2001 1993 0
-2002 -2001 -1993 0
2002 -2001 1993 0
2002 2001 -1993 0
-2003 2002 1994 0
-2003 -2002 -1994 0
2003 -2002 1994 0
2003 2002 -1994 0
-2003 0
-2004 3 0
-2004 45 0
-2004 102 0
2004 -3 -45 -102 0
-2005 7 0
-2005 51 0
-2005 108 0
2005 -7 -51 -108 0
-2006 11 0
-2006 57 0
-2006 114 0
2006 -11 -57 -114 0
-2007 15 0
-2007 63 0
-2007 120 0
2007 -15 -63 -120 0
-2008 19 0
-2008 69 0
-2008 126 0
2008 -19 -69 -126 0
-2009 23 0
-2009 75 0
-2009 132 0
2009 -23 -75 -132 0
-2010 27 0
-2010 81 0
-2010 138 0
2010 -27 -81 -138 0
-2011 31 0
-2011 87 0
-2011 144 0
2011 -31 -87 -144 0
-2012 35 0
-2012 93 0
-2012 150 0
2012 -35 -93 -150 0
-2013 39 0
-2013 99 0
-2013 156 0
2013 -39 -99 -156 0
-2014 2004 2005 0
-2014 -2004 -2005 0
2014 -2004 2005 0
2014 2004 -2005 0
-2015 2014 2006 0
-2015 -2014 -2006 0
2015 -2014 2006 0
2015 2014 -2006 0
-2016 2015 2007 0
-2016 -2015 -2007 0
2016 -2015 2007 0
2016 2015 -2007 0
-2017 2016 2008 0
-2017 -2016 -2008 0
2017 -2016 2008 0
2017 2016 -2008 0
-2018 2017 2009 0
-2018 -2017 -2009 0
2018 -2017 2009 0
2018 2017 -2009 0
-2019 2018 2010 0
-2019 -2018 -2010 0
2019 -2018 2010 0
2019 2018 -2010 0
-2020 2019 2011 0
-2020 -2019 -2011 0
2020 -2019 2011 0
2020 2019 -2011 0
-2021 2020 2012 0
-2021 -2020 -2012 0
2021 -2020 2012 0
2021 2020 -2012 0
-2022 2021 2013 0
-2022 -2021 -2013 0
2022 -2021 2013 0
2022 2021 -2013 0
-2022 0
-2023 3 0
-2023 45 0
-2023 103 0
2023 -3 -45 -103 0
-2024 7 0
-2024 51 0
-2024 109 0
2024 -7 -51 -109 0
-2025 11 0
-2025 57 0
-2025 115 0
2025 -11 -57 -115 0
-2026 15 0
-2026 63 0
-2026 121 0
2026 -15 -63 -121 0
-2027 19 0
-2027 69 0
-2027 127 0
2027 -19 -69 -127 0
-2028 23 0
-2028 75 0
-2028 133 0
2028 -23 -75 -133 0
-2029 27 0
-2029 81 0
-2029 139 0
2029 -27 -81 -139 0
-2030 31 0
-2030 87 0
-2030 145 0
2030 -31 -87 -145 0
-2031 35 0
-2031 93 0
-2031 151 0
2031 -35 -93 -151 0
-2032 39 0
-2032 99 0
-2032 157 0
2032 -39 -99 -157 0
-2033 2023 2024 0
-2033 -2023 -2024 0
2033 -2023 2024 0
2033 2023 -2024 0
-2034 2033 2025 0
-2034 -2033 -2025 0
2034 -2033 2025 0
2034 2033 -2025 0
-2035 2034 2026 0
-2035 -2034 -2026 0
2035 -2034 2026 0
2035 2034 -2026 0
-2036 2035 2027 0
-2036 -2035 -2027 0
2036 -2035 2027 0
2036 2035 -2027 0
-2037 2036 2028 0
-2037 -2036 -2028 0
2037 -2036 2028 0
2037 2036 -2028 0
-2038 2037 2029 0
-2038 -2037 -2029 0
2038 -2037 2029 0
2038 2037 -2029 0
-2039 2038 2030 0
-2039 -2038 -2030 0
2039 -2038 2030 0
2039 2038 -2030 0
-2040 2039 2031 0
-2040 -2039 -2031 0
2040 -2039 2031 0
2040 2039 -2031 0
-2041 2040 2032 0
-2041 -2040 -2032 0
2041 -2040 2032 0
2041 2040 -2032 0
-2041 0
-2042 3 0
-2042 45 0
-2042 104 0
2042 -3 -45 -104 0
-2043 7 0
-2043 51 0
-2043 110 0
2043 -7 -51 -110 0
-2044 11 0
-2044 57 0
-2044 116 0
2044 -11 -57 -116 0
-2045 15 0
-2045 63 0
-2045 122 0
2045 -15 -63 -122 0
-2046 19 0
-2046 69 0
-2046 128 0
2046 -19 -69 -128 0
-2047 23 0
-2047 75 0
-2047 134 0
2047 -23 -75 -134 0
-2048 27 0
-2048 81 0
-2048 140 0
2048 -27 -81 -140 0
-2049 31 0
-2049 87 0
-2049 146 0
2049 -31 -87 -146 0
-2050 35 0
-2050 93 0
-2050 152 0
2050 -35 -93 -152 0
-2051 39 0
-2051 99 0
-2051 158 0
2051 -39 -99 -158 0
-2052 2042 2043 0
-2052 -2042 -2043 0
2052 -2042 2043 0
2052 2042 -2043 0
-2053 2052 2044 0
-2053 -2052 -2044 0
2053 -2052 2044 0
2053 2052 -2044 0
-2054 2053 2045 0
-2054 -2053 -2045 0
2054 -2053 2045 0
2054 2053 -2045 0
-2055 2054 2046 0
-2055 -2054 -2046 0
2055 -2054 2046 0
2055 2054 -2046 0
-2056 2055 2047 0
-2056 -2055 -2047 0
2056 -2055 2047 0
2056 2055 -2047 0
-2057 2056 2048 0
-2057 -2056 -2048 0
2057 -2056 2048 0
2057 2056 -2048 0
-2058 2057 2049 0
-2058 -2057 -2049 0
2058 -2057 2049 0
2058 2057 -2049 0
-2059 2058 2050 0
-2059 -2058 -2050 0
2059 -2058 2050 0
2059 2058 -2050 0
-2060 2059 2051 0
-2060 -2059 -2051 0
2060 -2059 2051 0
2060 2059 -2051 0
-2060 0
-2061 3 0
-2061 45 0
-2061 105 0
2061 -3 -45 -105 0
-2062 7 0
-2062 51 0
-2062 111 0
2062 -7 -51 -111 0
-2063 11 0
-2063 57 0
-2063 117 0
2063 -11 -57 -117 0
-2064 15 0
-2064 63 0
-2064 123 0
2064 -15 -63 -123 0
-2065 19 0
-2065 69 0
-2065 129 0
2065 -19 -69 -129 0
-2066 23 0
-2066 75 0
-2066 135 0
2066 -23 -75 -135 0
-2067 27 0
-2067 81 0
-2067 141 0
2067 -27 -81 -141 0
-2068 31 0
-2068 87 0
-2068 147 0
2068 -31 -87 -147 0
-2069 35 0
-2069 93 0
-2069 153 0
2069 -35 -93 -153 0
-2070 39 0
-2070 99 0
-2070 159 0
2070 -39 -99 -159 0
-2071 2061 2062 0
-2071 -2061 -2062 0
2071 -2061 2062 0
2071 2061 -2062 0
-2072 2071 2063 0
-2072 -2071 -2063 0
2072 -2071 2063 0
2072 2071 -2063 0
-2073 2072 2064 0
-2073 -2072 -2064 0
2073 -2072 2064 0
2073 2072 -2064 0
-2074 2073 2065 0
-2074 -2073 -2065 0
2074 -2073 2065 0
2074 2073 -2065 0
-2075 2074 2066 0
-2075 -2074 -2066 0
2075 -2074 2066 0
2075 2074 -2066 0
-2076 2075 2067 0
-2076 -2075 -2067 0
2076 -2075 2067 0
2076 2075 -2067 0
-2077 2076 2068 0
-2077 -2076 -2068 0
2077 -2076 2068 0
2077 2076 -2068 0
-2078 2077 2069 0
-2078 -2077 -2069 0
2078 -2077 2069 0
2078 2077 -2069 0
-2079 2078 2070 0
-2079 -2078 -2070 0
2079 -2078 2070 0
2079 2078 -2070 0
-2079 0
-2080 3 0
-2080 45 0
-2080 106 0
2080 -3 -45 -106 0
-2081 7 0
-2081 51 0
-2081 112 0
2081 -7 -51 -112 0
-2082 11 0
-2082 57 0
-2082 118 0
2082 -11 -57 -118 0
-2083 15 0
-2083 63 0
-2083 124 0
2083 -15 -63 -124 0
-2084 19 0
-2084 69 0
-2084 130 0
2084 -19 -69 -130 0
-2085 23 0
-2085 75 0
-2085 136 0
2085 -23 -75 -136 0
-2086 27 0
-2086 81 0
-2086 142 0
2086 -27 -81 -142 0
-2087 31 0
-2087 87 0
-2087 148 0
2087 -31 -87 -148 0
-2088 35 0
-2088 93 0
-2088 154 0
2088 -35 -93 -154 0
-2089 39 0
-2089 99 0
-2089 160 0
2089 -39 -99 -160 0
-2090 2080 2081 0
-2090 -2080 -2081 0
2090 -2080 2081 0
2090 2080 -2081 0
-2091 2090 2082 0
-2091 -2090 -2082 0
2091 -2090 2082 0
2091 2090 -2082 0
-2092 2091 2083 0
-2092 -2091 -2083 0
2092 -2091 2083 0
2092 2091 -2083 0
-2093 2092 2084 0
-2093 -2092 -2084 0
2093 -2092 2084 0
2093 2092 -2084 0
-2094 2093 2085 0
-2094 -2093 -2085 0
2094 -2093 2085 0
2094 2093 -2085 0
-2095 2094 2086 0
-2095 -2094 -2086 0
2095 -2094 2086 0
2095 2094 -2086 0
-2096 2095 2087 0
-2096 -2095 -2087 0
2096 -2095 2087 0
2096 2095 -2087 0
-2097 2096 2088 0
-2097 -2096 -2088 0
2097 -2096 2088 0
2097 2096 -2088 0
-2098 2097 2089 0
-2098 -2097 -2089 0
2098 -2097 2089 0
2098 2097 -2089 0
-2098 0
-2099 3 0
-2099 46 0
-2099 101 0
2099 -3 -46 -101 0
-2100 7 0
-2100 52 0
-2100 107 0
2100 -7 -52 -107 0
-2101 11 0
-2101 58 0
-2101 113 0
2101 -11 -58 -113 0
-2102 15 0
-2102 64 0
-2102 119 0
2102 -15 -64 -119 0
-2103 19 0
-2103 70 0
-2103 125 0
2103 -19 -70 -125 0
-2104 23 0
-2104 76 0
-2104 131 0
2104 -23 -76 -131 0
-2105 27 0
-2105 82 0
-2105 137 0
2105 -27 -82 -137 0
-2106 31 0
-2106 88 0
-2106 143 0
2106 -31 -88 -143 0
-2107 35 0
-2107 94 0
-2107 149 0
2107 -35 -94 -149 0
-2108 39 0
-2108 100 0
-2108 155 0
2108 -39 -100 -155 0
-2109 2099 2100 0
-2109 -2099 -2100 0
2109 -2099 2100 0
2109 2099 -2100 0
-2110 2109 2101 0
-2110 -2109 -2101 0
2110 -2109 2101 0
2110 2109 -2101 0
-2111 2110 2102 0
-2111 -2110 -2102 0
2111 -2110 2102 0
2111 2110 -2102 0
-2112 2111 2103 0
-2112 -2111 -2103 0
2112 -2111 2103 0
2112 2111 -2103 0
-2113 2112 2104 0
-2113 -2112 -2104 0
2113 -2112 2104 0
2113 2112 -2104 0
-2114 2113 2105 0
-2114 -2113 -2105 0
2114 -2113 2105 0
2114 2113 -2105 0
-2115 2114 2106 0
-2115 -2114 -2106 0
2115 -2114 2106 0
2115 2114 -2106 0
-2116 2115 2107 0
-2116 -2115 -2107 0
2116 -2115 2107 0
2116 2115 -2107 0
-2117 2116 2108 0
-2117 -2116 -2108 0
2117 -2116 2108 0
2117 2116 -2108 0
-2117 0
-2118 3 0
-2118 46 0
-2118 102 0
2118 -3 -46 -102 0
-2119 7 0
-2119 52 0
-2119 108 0
2119 -7 -52 -108 0
-2120 11 0
-2120 58 0
-2120 114 0
2120 -11 -58 -114 0
-2121 15 0
-2121 64 0
-2121 120 0
2121 -15 -64 -120 0
-2122 19 0
-2122 70 0
-2122 126 0
2122 -19 -70 -126 0
-2123 23 0
-2123 76 0
-2123 132 0
2123 -23 -76 -132 0
-2124 27 0
-2124 82 0
-2124 138 0
2124 -27 -82 -138 0
-2125 31 0
-2125 88 0
-2125 144 0
2125 -31 -88 -144 0
-2126 35 0
-2126 94 0
-2126 150 0
2126 -35 -94 -150 0
-2127 39 0
-2127 100 0
-2127 156 0
2127 -39 -100 -156 0
-2128 2118 2119 0
-2128 -2118 -2119 0
2128 -2118 2119 0
2128 2118 -2119 0
-2129 2128 2120 0
-2129 -2128 -2120 0
2129 -2128 2120 0
2129 2128 -2120 0
-2130 2129 2121 0
-2130 -2129 -2121 0
2130 -2129 2121 0
2130 2129 -2121 0
-2131 2130 2122 0
-2131 -2130 -2122 0
2131 -2130 2122 0
2131 2130 -2122 0
-2132 2131 2123 0
-2132 -2131 -2123 0
2132 -2131 2123 0
2132 2131 -2123 0
-2133 2132 2124 0
-2133 -2132 -2124 0
2133 -2132 2124 0
2133 2132 -2124 0
-2134 2133 2125 0
-2134 -2133 -2125 0
2134 -2133 2125 0
2134 2133 -2125 0
-2135 2134 2126 0
-2135 -2134 -2126 0
2135 -2134 2126 0
2135 2134 -2126 0
-2136 2135 2127 0
-2136 -2135 -2127 0
2136 -2135 2127 0
2136 2135 -2127 0
-2136 0
-2137 3 0
-2137 46 0
-2137 103 0
2137 -3 -46 -103 0
-2138 7 0
-2138 52 0
-2138 109 0
2138 -7 -52 -109 0
-2139 11 0
-2139 58 0
-2139 115 0
2139 -11 -58 -115 0
-2140 15 0
-2140 64 0
-2140 121 0
2140 -15 -64 -121 0
-2141 19 0
-2141 70 0
-2141 127 0
2141 -19 -70 -127 0
-2142 23 0
-2142 76 0
-2142 133 0
2142 -23 -76 -133 0
-2143 27 0
-2143 82 0
-2143 139 0
2143 -27 -82 -139 0
-2144 31 0
-2144 88 0
-2144 145 0
2144 -31 -88 -145 0
-2145 35 0
-2145 94 0
-2145 151 0
2145 -35 -94 -151 0
-2146 39 0
-2146 100 0
-2146 157 0
2146 -39 -100 -157 0
-2147 2137 2138 0
-2147 -2137 -2138 0
2147 -2137 2138 0
2147 2137 -2138 0
-2148 2147 2139 0
-2148 -2147 -2139 0
2148 -2147 2139 0
2148 2147 -2139 0
-2149 2148 2140 0
-2149 -2148 -2140 0
2149 -2148 2140 0
2149 2148 -2140 0
-2150 2149 2141 0
-2150 -2149 -2141 0
2150 -2149 2141 0
2150 2149 -2141 0
-2151 2150 2142 0
-2151 -2150 -2142 0
2151 -2150 2142 0
2151 2150 -2142 0
-2152 2151 2143 0
-2152 -2151 -2143 0
2152 -2151 2143 0
2152 2151 -2143 0
-2153 2152 2144 0
-2153 -2152 -2144 0
2153 -2152 2144 0
2153 2152 -2144 0
-2154 2153 2145 0
-2154 -2153 -2145 0
2154 -2153 2145 0
2154 2153 -2145 0
-2155 2154 2146 0
-2155 -2154 -2146 0
2155 -2154 2146 0
2155 2154 -2146 0
-2155 0
-2156 3 0
-2156 46 0
-2156 104 0
2156 -3 -46 -104 0
-2157 7 0
-2157 52 0
-2157 110 0
2157 -7 -52 -110 0
-2158 11 0
-2158 58 0
-2158 116 0
2158 -11 -58 -116 0
-2159 15 0
-2159 64 0
-2159 122 0
2159 -15 -64 -122 0
-2160 19 0
-2160 70 0
-2160 128 0
2160 -19 -70 -128 0
-2161 23 0
-2161 76 0
-2161 134 0
2161 -23 -76 -134 0
-2162 27 0
-2162 82 0
-2162 140 0
2162 -27 -82 -140 0
-2163 31 0
-2163 88 0
-2163 146 0
2163 -31 -88 -146 0
-2164 35 0
-2164 94 0
-2164 152 0
2164 -35 -94 -152 0
-2165 39 0
-2165 100 0
-2165 158 0
2165 -39 -100 -158 0
-2166 2156 2157 0
-2166 -2156 -2157 0
2166 -2156 2157 0
2166 2156 -2157 0
-2167 2166 2158 0
-2167 -2166 -2158 0
2167 -2166 2158 0
2167 2166 -2158 0
-2168 2167 2159 0
-2168 -2167 -2159 0
2168 -2167 2159 0
2168 2167 -2159 0
-2169 2168 2160 0
-2169 -2168 -2160 0
2169 -2168 2160 0
2169 2168 -2160 0
-2170 2169 2161 0
-2170 -2169 -2161 0
2170 -2169 2161 0
2170 2169 -2161 0
-2171 2170 2162 0
-2171 -2170 -2162 0
2171 -2170 2162 0
2171 2170 -2162 0
-2172 2171 2163 0
-2172 -2171 -2163 0
2172 -2171 2163 0
2172 2171 -2163 0
-2173 2172 2164 0
-2173 -2172 -2164 0
2173 -2172 2164 0
2173 2172 -2164 0
-2174 2173 2165 0
-2174 -2173 -2165 0
2174 -2173 2165 0
2174 2173 -2165 0
-2174 0
-2175 3 0
-2175 46 0
-2175 105 0
2175 -3 -46 -105 0
-2176 7 0
-2176 52 0
-2176 111 0
2176 -7 -52 -111 0
-2177 11 0
-2177 58 0
-2177 117 0
2177 -11 -58 -117 0
-2178 15 0
-2178 64 0
-2178 123 0
2178 -15 -64 -123 0
-2179 19 0
-2179 70 0
-2179 129 0
2179 -19 -70 -129 0
-2180 23 0
-2180 76 0
-2180 135 0
2180 -23 -76 -135 0
-2181 27 0
-2181 82 0
-2181 141 0
2181 -27 -82 -141 0
-2182 31 0
-2182 88 0
-2182 147 0
2182 -31 -88 -147 0
-2183 35 0
-2183 94 0
-2183 153 0
2183 -35 -94 -153 0
-2184 39 0
-2184 100 0
-2184 159 0
2184 -39 -100 -159 0
-2185 2175 2176 0
-2185 -2175 -2176 0
2185 -2175 2176 0
2185 2175 -2176 0
-2186 2185 2177 0
-2186 -2185 -2177 0
2186 -2185 2177 0
2186 2185 -2177 0
-2187 2186 2178 0
-2187 -2186 -2178 0
2187 -2186 2178 0
2187 2186 -2178 0
-2188 2187 2179 0
-2188 -2187 -2179 0
2188 -2187 2179 0
2188 2187 -2179 0
-2189 2188 2180 0
-2189 -2188 -2180 0
2189 -2188 2180 0
2189 2188 -2180 0
-2190 2189 2181 0
-2190 -2189 -2181 0
2190 -2189 2181 0
2190 2189 -2181 0
-2191 2190 2182 0
-2191 -2190 -2182 0
2191 -2190 2182 0
2191 2190 -2182 0
-2192 2191 2183 0
-2192 -2191 -2183 0
2192 -2191 2183 0
2192 2191 -2183 0
-2193 2192 2184 0
-2193 -2192 -2184 0
2193 -2192 2184 0
2193 2192 -2184 0
-2193 0
-2194 3 0
-2194 46 0
-2194 106 0
2194 -3 -46 -106 0
-2195 7 0
-2195 52 0
-2195 112 0
2195 -7 -52 -112 0
-2196 11 0
-2196 58 0
-2196 118 0
2196 -11 -58 -118 0
-2197 15 0
-2197 64 0
-2197 124 0
2197 -15 -64 -124 0
-2198 19 0
-2198 70 0
-2198 130 0
2198 -19 -70 -130 0
-2199 23 0
-2199 76 0
-2199 136 0
2199 -23 -76 -136 0
-2200 27 0
-2200 82 0
-2200 142 0
2200 -27 -82 -142 0
-2201 31 0
-2201 88 0
-2201 148 0
2201 -31 -88 -148 0
-2202 35 0
-2202 94 0
-2202 154 0
2202 -35 -94 -154 0
-2203 39 0
-2203 100 0
-2203 160 0
2203 -39 -100 -160 0
-2204 2194 2195 0
-2204 -2194 -2195 0
2204 -2194 2195 0
2204 2194 -2195 0
-2205 2204 2196 0
-2205 -2204 -2196 0
2205 -2204 2196 0
2205 2204 -2196 0
-2206 2205 2197 0
-2206 -2205 -2197 0
2206 -2205 2197 0
2206 2205 -2197 0
-2207 2206 2198 0
-2207 -2206 -2198 0
2207 -2206 2198 0
2207 2206 -2198 0
-2208 2207 2199 0
-2208 -2207 -2199 0
2208 -2207 2199 0
2208 2207 -2199 0
-2209 2208 2200 0
-2209 -2208 -2200 0
2209 -2208 2200 0
2209 2208 -2200 0
-2210 2209 2201 0
-2210 -2209 -2201 0
2210 -2209 2201 0
2210 2209 -2201 0
-2211 2210 2202 0
-2211 -2210 -2202 0
2211 -2210 2202 0
2211 2210 -2202 0
-2212 2211 2203 0
-2212 -2211 -2203 0
2212 -2211 2203 0
2212 2211 -2203 0
-2212 0
-2213 4 0
-2213 41 0
-2213 101 0
2213 -4 -41 -101 0
-2214 8 0
-2214 47 0
-2214 107 0
2214 -8 -47 -107 0
-2215 12 0
-2215 53 0
-2215 113 0
2215 -12 -53 -113 0
-2216 16 0
-2216 59 0
-2216 119 0
2216 -16 -59 -119 0
-2217 20 0
-2217 65 0
-2217 125 0
2217 -20 -65 -125 0
-2218 24 0
-2218 71 0
-2218 131 0
2218 -24 -71 -131 0
-2219 28 0
-2219 77 0
-2219 137 0
2219 -28 -77 -137 0
-2220 32 0
-2220 83 0
-2220 143 0
2220 -32 -83 -143 0
-2221 36 0
-2221 89 0
-2221 149 0
2221 -36 -89 -149 0
-2222 40 0
-2222 95 0
-2222 155 0
2222 -40 -95 -155 0
-2223 2213 2214 0
-2223 -2213 -2214 0
2223 -2213 2214 0
2223 2213 -2214 0
-2224 2223 2215 0
-2224 -2223 -2215 0
2224 -2223 2215 0
2224 2223 -2215 0
-2225 2224 2216 0
-2225 -2224 -2216 0
2225 -2224 2216 0
2225 2224 -2216 0
-2226 2225 2217 0
-2226 -2225 -2217 0
2226 -2225 2217 0
2226 2225 -2217 0
-2227 2226 2218 0
-2227 -2226 -2218 0
2227 -2226 2218 0
2227 2226 -2218 0
-2228 2227 2219 0
-2228 -2227 -2219 0
2228 -2227 2219 0
2228 2227 -2219 0
-2229 2228 2220 0
-2229 -2228 -2220 0
2229 -2228 2220 0
2229 2228 -2220 0
-2230 2229 2221 0
-2230 -2229 -2221 0
2230 -2229 2221 0
2230 2229 -2221 0
-2231 2230 2222 0
-2231 -2230 -2222 0
2231 -2230 2222 0
2231 2230 -2222 0
-2231 0
-2232 4 0
-2232 41 0
-2232 102 0
2232 -4 -41 -102 0
-2233 8 0
-2233 47 0
-2233 108 0
2233 -8 -47 -108 0
-2234 12 0
-2234 53 0
-2234 114 0
2234 -12 -53 -114 0
-2235 16 0
-2235 59 0
-2235 120 0
2235 -16 -59 -120 0
-2236 20 0
-2236 65 0
-2236 126 0
2236 -20 -65 -126 0
-2237 24 0
-2237 71 0
-2237 132 0
2237 -24 -71 -132 0
-2238 28 0
-2238 77 0
-2238 138 0
2238 -28 -77 -138 0
-2239 32 0
-2239 83 0
-2239 144 0
2239 -32 -83 -144 0
-2240 36 0
-2240 89 0
-2240 150 0
2240 -36 -89 -150 0
-2241 40 0
-2241 95 0
-2241 156 0
2241 -40 -95 -156 0
-2242 2232 2233 0
-2242 -2232 -2233 0
2242 -2232 2233 0
2242 2232 -2233 0
-2243 2242 2234 0
-2243 -2242 -2234 0
2243 -2242 2234 0
2243 2242 -2234 0
-2244 2243 2235 0
-2244 -2243 -2235 0
2244 -2243 2235 0
2244 2243 -2235 0
-2245 2244 2236 0
-2245 -2244 -2236 0
2245 -2244 2236 0
2245 2244 -2236 0
-2246 2245 2237 0
-2246 -2245 -2237 0
2246 -2245 2237 0
2246 2245 -2237 0
-2247 2246 2238 0
-2247 -2246 -2238 0
2247 -2246 2238 0
2247 2246 -2238 0
-2248 2247 2239 0
-2248 -2247 -2239 0
2248 -2247 2239 0
2248 2247 -2239 0
-2249 2248 2240 0
-2249 -2248 -2240 0
2249 -2248 2240 0
2249 2248 -2240 0
-2250 2249 2241 0
-2250 -2249 -2241 0
2250 -2249 2241 0
2250 2249 -2241 0
-2250 0
-2251 4 0
-2251 41 0
-2251 103 0
2251 -4 -41 -103 0
-2252 8 0
-2252 47 0
-2252 109 0
2252 -8 -47 -109 0
-2253 12 0
-2253 53 0
-2253 115 0
2253 -12 -53 -115 0
-2254 16 0
-2254 59 0
-2254 121 0
2254 -16 -59 -121 0
-2255 20 0
-2255 65 0
-2255 127 0
2255 -20 -65 -127 0
-2256 24 0
-2256 71 0
-2256 133 0
2256 -24 -71 -133 0
-2257 28 0
-2257 77 0
-2257 139 0
2257 -28 -77 -139 0
-2258 32 0
-2258 83 0
-2258 145 0
2258 -32 -83 -145 0
-2259 36 0
-2259 89 0
-2259 151 0
2259 -36 -89 -151 0
-2260 40 0
-2260 95 0
-2260 157 0
2260 -40 -95 -157 0
-2261 2251 2252 0
-2261 -2251 -2252 0
2261 -2251 2252 0
2261 2251 -2252 0
-2262 2261 2253 0
-2262 -2261 -2253 0
2262 -2261 2253 0
2262 2261 -2253 0
-2263 2262 2254 0
-2263 -2262 -2254 0
2263 -2262 2254 0
2263 2262 -2254 0
-2264 2263 2255 0
-2264 -2263 -2255 0
2264 -2263 2255 0
2264 2263 -2255 0
-2265 2264 2256 0
-2265 -2264 -2256 0
2265 -2264 2256 0
2265 2264 -2256 0
-2266 2265 2257 0
-2266 -2265 -2257 0
2266 -2265 2257 0
2266 2265 -2257 0
-2267 2266 2258 0
-2267 -2266 -2258 0
2267 -2266 2258 0
2267 2266 -2258 0
-2268 2267 2259 0
-2268 -2267 -2259 0
2268 -2267 2259 0
2268 2267 -2259 0
-2269 2268 2260 0
-2269 -2268 -2260 0
2269 -2268 2260 0
2269 2268 -2260 0
-2269 0
-2270 4 0
-2270 41 0
-2270 104 0
2270 -4 -41 -104 0
-2271 8 0
-2271 47 0
-2271 110 0
2271 -8 -47 -110 0
-2272 12 0
-2272 53 0
-2272 116 0
2272 -12 -53 -116 0
-2273 16 0
-2273 59 0
-2273 122 0
2273 -16 -59 -122 0
-2274 20 0
-2274 65 0
-2274 128 0
2274 -20 -65 -128 0
-2275 24 0
-2275 71 0
-2275 134 0
2275 -24 -71 -134 0
-2276 28 0
-2276 77 0
-2276 140 0
2276 -28 -77 -140 0
-2277 32 0
-2277 83 0
-2277 146 0
2277 -32 -83 -146 0
-2278 36 0
-2278 89 0
-2278 152 0
2278 -36 -89 -152 0
-2279 40 0
-2279 95 0
-2279 158 0
2279 -40 -95 -158 0
-2280 2270 2271 0
-2280 -2270 -2271 0
2280 -2270 2271 0
2280 2270 -2271 0
-2281 2280 2272 0
-2281 -2280 -2272 0
2281 -2280 2272 0
2281 2280 -2272 0
-2282 2281 2273 0
-2282 -2281 -2273 0
2282 -2281 2273 0
2282 2281 -2273 0
-2283 2282 2274 0
-2283 -2282 -2274 0
2283 -2282 2274 0
2283 2282 -2274 0
-2284 2283 2275 0
-2284 -2283 -2275 0
2284 -2283 2275 0
2284 2283 -2275 0
-2285 2284 2276 0
-2285 -2284 -2276 0
2285 -2284 2276 0
2285 2284 -2276 0
-2286 2285 2277 0
-2286 -2285 -2277 0
2286 -2285 2277 0
2286 2285 -2277 0
-2287 2286 2278 0
-2287 -2286 -2278 0
2287 -2286 2278 0
2287 2286 -2278 0
-2288 2287 2279 0
-2288 -2287 -2279 0
2288 -2287 2279 0
2288 2287 -2279 0
-2288 0
-2289 4 0
-2289 41 0
-2289 105 0
2289 -4 -41 -105 0
-2290 8 0
-2290 47 0
-2290 111 0
2290 -8 -47 -111 0
-2291 12 0
-2291 53 0
-2291 117 0
2291 -12 -53 -117 0
-2292 16 0
-2292 59 0
-2292 123 0
2292 -16 -59 -123 0
-2293 20 0
-2293 65 0
-2293 129 0
2293 -20 -65 -129 0
-2294 24 0
-2294 71 0
-2294 135 0
2294 -24 -71 -135 0
-2295 28 0
-2295 77 0
-2295 141 0
2295 -28 -77 -141 0
-2296 32 0
-2296 83 0
-2296 147 0
2296 -32 -83 -147 0
-2297 36 0
-2297 89 0
-2297 153 0
2297 -36 -89 -153 0
-2298 40 0
-2298 95 0
-2298 159 0
2298 -40 -95 -159 0
-2299 2289 2290 0
-2299 -2289 -2290 0
2299 -2289 2290 0
2299 2289 -2290 0
-2300 2299 2291 0
-2300 -2299 -2291 0
2300 -2299 2291 0
2300 2299 -2291 0
-2301 2300 2292 0
-2301 -2300 -2292 0
2301 -2300 2292 0
2301 2300 -2292 0
-2302 2301 2293 0
-2302 -2301 -2293 0
2302 -2301 2293 0
2302 2301 -2293 0
-2303 2302 2294 0
-2303 -2302 -2294 0
2303 -2302 2294 0
2303 2302 -2294 0
-2304 2303 2295 0
-2304 -2303 -2295 0
2304 -2303 2295 0
2304 2303 -2295 0
-2305 2304 2296 0
-2305 -2304 -2296 0
2305 -2304 2296 0
2305 2304 -2296 0
-2306 2305 2297 0
-2306 -2305 -2297 0
2306 -2305 2297 0
2306 2305 -2297 0
-2307 2306 2298 0
-2307 -2306 -2298 0
2307 -2306 2298 0
2307 2306 -2298 0
-2307 0
-2308 4 0
-2308 41 0
-2308 106 0
2308 -4 -41 -106 0
-2309 8 0
-2309 47 0
-2309 112 0
2309 -8 -47 -112 0
-2310 12 0
-2310 53 0
-2310 118 0
2310 -12 -53 -118 0
-2311 16 0
-2311 59 0
-2311 124 0
2311 -16 -59 -124 0
-2312 20 0
-2312 65 0
-2312 130 0
2312 -20 -65 -130 0
-2313 24 0
-2313 71 0
-2313 136 0
2313 -24 -71 -136 0
-2314 28 0
-2314 77 0
-2314 142 0
2314 -28 -77 -142 0
-2315 32 0
-2315 83 0
-2315 148 0
2315 -32 -83 -148 0
-2316 36 0
-2316 89 0
-2316 154 0
2316 -36 -89 -154 0
-2317 40 0
-2317 95 0
-2317 160 0
2317 -40 -95 -160 0
-2318 2308 2309 0
-2318 -2308 -2309 0
2318 -2308 2309 0
2318 2308 -2309 0
-2319 2318 2310 0
-2319 -2318 -2310 0
2319 -2318 2310 0
2319 2318 -2310 0
-2320 2319 2311 0
-2320 -2319 -2311 0
2320 -2319 2311 0
2320 2319 -2311 0
-2321 2320 2312 0
-2321 -2320 -2312 0
2321 -2320 2312 0
2321 2320 -2312 0
-2322 2321 2313 0
-2322 -2321 -2313 0
2322 -2321 2313 0
2322 2321 -2313 0
-2323 2322 2314 0
-2323 -2322 -2314 0
2323 -2322 2314 0
2323 2322 -2314 0
-2324 2323 2315 0
-2324 -2323 -2315 0
2324 -2323 2315 0
2324 2323 -2315 0
-2325 2324 2316 0
-2325 -2324 -2316 0
2325 -2324 2316 0
2325 2324 -2316 0
-2326 2325 2317 0
-2326 -2325 -2317 0
2326 -2325 2317 0
2326 2325 -2317 0
-2326 0
-2327 4 0
-2327 42 0
-2327 101 0
2327 -4 -42 -101 0
-2328 8 0
-2328 48 0
-2328 107 0
2328 -8 -48 -107 0
-2329 12 0
-2329 54 0
-2329 113 0
2329 -12 -54 -113 0
-2330 16 0
-2330 60 0
-2330 119 0
2330 -16 -60 -119 0
-2331 20 0
-2331 66 0
-2331 125 0
2331 -20 -66 -125 0
-2332 24 0
-2332 72 0
-2332 131 0
2332 -24 -72 -131 0
-2333 28 0
-2333 78 0
-2333 137 0
2333 -28 -78 -137 0
-2334 32 0
-2334 84 0
-2334 143 0
2334 -32 -84 -143 0
-2335 36 0
-2335 90 0
-2335 149 0
2335 -36 -90 -149 0
-2336 40 0
-2336 96 0
-2336 155 0
2336 -40 -96 -155 0
-2337 2327 2328 0
-2337 -2327 -2328 0
2337 -2327 2328 0
2337 2327 -2328 0
-2338 2337 2329 0
-2338 -2337 -2329 0
2338 -2337 2329 0
2338 2337 -2329 0
-2339 2338 2330 0
-2339 -2338 -2330 0
2339 -2338 2330 0
2339 2338 -2330 0
-2340 2339 2331 0
-2340 -2339 -2331 0
2340 -2339 2331 0
2340 2339 -2331 0
-2341 2340 2332 0
-2341 -2340 -2332 0
2341 -2340 2332 0
2341 2340 -2332 0
-2342 2341 2333 0
-2342 -2341 -2333 0
2342 -2341 2333 0
2342 2341 -2333 0
-2343 2342 2334 0
-2343 -2342 -2334 0
2343 -2342 2334 0
2343 2342 -2334 0
-2344 2343 2335 0
-2344 -2343 -2335 0
2344 -2343 2335 0
2344 2343 -2335 0
-2345 2344 2336 0
-2345 -2344 -2336 0
2345 -2344 2336 0
2345 2344 -2336 0
-2345 0
-2346 4 0
-2346 42 0
-2346 102 0
2346 -4 -42 -102 0
-2347 8 0
-2347 48 0
-2347 108 0
2347 -8 -48 -108 0
-2348 12 0
-2348 54 0
-2348 114 0
2348 -12 -54 -114 0
-2349 16 0
-2349 60 0
-2349 120 0
2349 -16 -60 -120 0
-2350 20 0
-2350 66 0
-2350 126 0
2350 -20 -66 -126 0
-2351 24 0
-2351 72 0
-2351 132 0
2351 -24 -72 -132 0
-2352 28 0
-2352 78 0
-2352 138 0
2352 -28 -78 -138 0
-2353 32 0
-2353 84 0
-2353 144 0
2353 -32 -84 -144 0
-2354 36 0
-2354 90 0
-2354 150 0
2354 -36 -90 -150 0
-2355 40 0
-2355 96 0
-2355 156 0
2355 -40 -96 -156 0
-2356 2346 2347 0
-2356 -2346 -2347 0
2356 -2346 2347 0
2356 2346 -2347 0
-2357 2356 2348 0
-2357 -2356 -2348 0
2357 -2356 2348 0
2357 2356 -2348 0
-2358 2357 2349 0
-2358 -2357 -2349 0
2358 -2357 2349 0
2358 2357 -2349 0
-2359 2358 2350 0
-2359 -2358 -2350 0
2359 -2358 2350 0
2359 2358 -2350 0
-2360 2359 2351 0
-2360 -2359 -2351 0
2360 -2359 2351 0
2360 2359 -2351 0
-2361 2360 2352 0
-2361 -2360 -2352 0
2361 -2360 2352 0
2361 2360 -2352 0
-2362 2361 2353 0
-2362 -2361 -2353 0
2362 -2361 2353 0
2362 2361 -2353 0
-2363 2362 2354 0
-2363 -2362 -2354 0
2363 -2362 2354 0
2363 2362 -2354 0
-2364 2363 2355 0
-2364 -2363 -2355 0
2364 -2363 2355 0
2364 2363 -2355 0
-2364 0
-2365 4 0
-2365 42 0
-2365 103 0
2365 -4 -42 -103 0
-2366 8 0
-2366 48 0
-2366 109 0
2366 -8 -48 -109 0
-2367 12 0
-2367 54 0
-2367 115 0
2367 -12 -54 -115 0
-2368 16 0
-2368 60 0
-2368 121 0
2368 -16 -60 -121 0
-2369 20 0
-2369 66 0
-2369 127 0
2369 -20 -66 -127 0
-2370 24 0
-2370 72 0
-2370 133 0
2370 -24 -72 -133 0
-2371 28 0
-2371 78 0
-2371 139 0
2371 -28 -78 -139 0
-2372 32 0
-2372 84 0
-2372 145 0
2372 -32 -84 -145 0
-2373 36 0
-2373 90 0
-2373 151 0
2373 -36 -90 -151 0
-2374 40 0
-2374 96 0
-2374 157 0
2374 -40 -96 -157 0
-2375 2365 2366 0
-2375 -2365 -2366 0
2375 -2365 2366 0
2375 2365 -2366 0
-2376 2375 2367 0
-2376 -2375 -2367 0
2376 -2375 2367 0
2376 2375 -2367 0
-2377 2376 2368 0
-2377 -2376 -2368 0
2377 -2376 2368 0
2377 2376 -2368 0
-2378 2377 2369 0
-2378 -2377 -2369 0
2378 -2377 2369 0
2378 2377 -2369 0
-2379 2378 2370 0
-2379 -2378 -2370 0
2379 -2378 2370 0
2379 2378 -2370 0
-2380 2379 2371 0
-2380 -2379 -2371 0
2380 -2379 2371 0
2380 2379 -2371 0
-2381 2380 2372 0
-2381 -2380 -2372 0
2381 -2380 2372 0
2381 2380 -2372 0
-2382 2381 2373 0
-2382 -2381 -2373 0
2382 -2381 2373 0
2382 2381 -2373 0
-2383 2382 2374 0
-2383 -2382 -2374 0
2383 -2382 2374 0
2383 2382 -2374 0
-2383 0
-2384 4 0
-2384 42 0
-2384 104 0
2384 -4 -42 -104 0
-2385 8 0
-2385 48 0
-2385 110 0
2385 -8 -48 -110 0
-2386 12 0
-2386 54 0
-2386 116 0
2386 -12 -54 -116 0
-2387 16 0
-2387 60 0
-2387 122 0
2387 -16 -60 -122 0
-2388 20 0
-2388 66 0
-2388 128 0
2388 -20 -66 -128 0
-2389 24 0
-2389 72 0
-2389 134 0
2389 -24 -72 -134 0
-2390 28 0
-2390 78 0
-2390 140 0
2390 -28 -78 -140 0
-2391 32 0
-2391 84 0
-2391 146 0
2391 -32 -84 -146 0
-2392 36 0
-2392 90 0
-2392 152 0
2392 -36 -90 -152 0
-2393 40 0
-2393 96 0
-2393 158 0
2393 -40 -96 -158 0
-2394 2384 2385 0
-2394 -2384 -2385 0
2394 -2384 2385 0
2394 2384 -2385 0
-2395 2394 2386 0
-2395 -2394 -2386 0
2395 -2394 2386 0
2395 2394 -2386 0
-2396 2395 2387 0
-2396 -2395 -2387 0
2396 -2395 2387 0
2396 2395 -2387 0
-2397 2396 2388 0
-2397 -2396 -2388 0
2397 -2396 2388 0
2397 2396 -2388 0
-2398 2397 2389 0
-2398 -2397 -2389 0
2398 -2397 2389 0
2398 2397 -2389 0
-2399 2398 2390 0
-2399 -2398 -2390 0
2399 -2398 2390 0
2399 2398 -2390 0
-2400 2399 2391 0
-2400 -2399 -2391 0
2400 -2399 2391 0
2400 2399 -2391 0
-2401 2400 2392 0
-2401 -2400 -2392 0
2401 -2400 2392 0
2401 2400 -2392 0
-2402 2401 2393 0
-2402 -2401 -2393 0
2402 -2401 2393 0
2402 2401 -2393 0
-2402 0
-2403 4 0
-2403 42 0
-2403 105 0
2403 -4 -42 -105 0
-2404 8 0
-2404 48 0
-2404 111 0
2404 -8 -48 -111 0
-2405 12 0
-2405 54 0
-2405 117 0
2405 -12 -54 -117 0
-2406 16 0
-2406 60 0
-2406 123 0
2406 -16 -60 -123 0
-2407 20 0
-2407 66 0
-2407 129 0
2407 -20 -66 -129 0
-2408 24 0
-2408 72 0
-2408 135 0
2408 -24 -72 -135 0
-2409 28 0
-2409 78 0
-2409 141 0
2409 -28 -78 -141 0
-2410 32 0
-2410 84 0
-2410 147 0
2410 -32 -84 -147 0
-2411 36 0
-2411 90 0
-2411 153 0
2411 -36 -90 -153 0
-2412 40 0
-2412 96 0
-2412 159 0
2412 -40 -96 -159 0
-2413 2403 2404 0
-2413 -2403 -2404 0
2413 -2403 2404 0
2413 2403 -2404 0
-2414 2413 2405 0
-2414 -2413 -2405 0
2414 -2413 2405 0
2414 2413 -2405 0
-2415 2414 2406 0
-2415 -2414 -2406 0
2415 -2414 2406 0
2415 2414 -2406 0
-2416 2415 2407 0
-2416 -2415 -2407 0
2416 -2415 2407 0
2416 2415 -2407 0
-2417 2416 2408 0
-2417 -2416 -2408 0
2417 -2416 2408 0
2417 2416 -2408 0
-2418 2417 2409 0
-2418 -2417 -2409 0
2418 -2417 2409 0
2418 2417 -2409 0
-2419 2418 2410 0
-2419 -2418 -2410 0
2419 -2418 2410 0
2419 2418 -2410 0
-2420 2419 2411 0
-2420 -2419 -2411 0
2420 -2419 2411 0
2420 2419 -2411 0
-2421 2420 2412 0
-2421 -2420 -2412 0
2421 -2420 2412 0
2421 2420 -2412 0
-2421 0
-2422 4 0
-2422 42 0
-2422 106 0
2422 -4 -42 -106 0
-2423 8 0
-2423 48 0
-2423 112 0
2423 -8 -48 -112 0
-2424 12 0
-2424 54 0
-2424 118 0
2424 -12 -54 -118 0
-2425 16 0
-2425 60 0
-2425 124 0
2425 -16 -60 -124 0
-2426 20 0
-2426 66 0
-2426 130 0
2426 -20 -66 -130 0
-2427 24 0
-2427 72 0
-2427 136 0
2427 -24 -72 -136 0
-2428 28 0
-2428 78 0
-2428 142 0
2428 -28 -78 -142 0
-2429 32 0
-2429 84 0
-2429 148 0
2429 -32 -84 -148 0
-2430 36 0
-2430 90 0
-2430 154 0
2430 -36 -90 -154 0
-2431 40 0
-2431 96 0
-2431 160 0
2431 -40 -96 -160 0
-2432 2422 2423 0
-2432 -2422 -2423 0
2432 -2422 2423 0
2432 2422 -2423 0
-2433 2432 2424 0
-2433 -2432 -2424 0
2433 -2432 2424 0
2433 2432 -2424 0
-2434 2433 2425 0
-2434 -2433 -2425 0
2434 -2433 2425 0
2434 2433 -2425 0
-2435 2434 2426 0
-2435 -2434 -2426 0
2435 -2434 2426 0
2435 2434 -2426 0
-2436 2435 2427 0
-2436 -2435 -2427 0
2436 -2435 2427 0
2436 2435 -2427 0
-2437 2436 2428 0
-2437 -2436 -2428 0
2437 -2436 2428 0
2437 2436 -2428 0
-2438 2437 2429 0
-2438 -2437 -2429 0
2438 -2437 2429 0
2438 2437 -2429 0
-2439 2438 2430 0
-2439 -2438 -2430 0
2439 -2438 2430 0
2439 2438 -2430 0
-2440 2439 2431 0
-2440 -2439 -2431 0
2440 -2439 2431 0
2440 2439 -2431 0
-2440 0
-2441 4 0
-2441 43 0
-2441 101 0
2441 -4 -43 -101 0
-2442 8 0
-2442 49 0
-2442 107 0
2442 -8 -49 -107 0
-2443 12 0
-2443 55 0
-2443 113 0
2443 -12 -55 -113 0
-2444 16 0
-2444 61 0
-2444 119 0
2444 -16 -61 -119 0
-2445 20 0
-2445 67 0
-2445 125 0
2445 -20 -67 -125 0
-2446 24 0
-2446 73 0
-2446 131 0
2446 -24 -73 -131 0
-2447 28 0
-2447 79 0
-2447 137 0
2447 -28 -79 -137 0
-2448 32 0
-2448 85 0
-2448 143 0
2448 -32 -85 -143 0
-2449 36 0
-2449 91 0
-2449 149 0
2449 -36 -91 -149 0
-2450 40 0
-2450 97 0
-2450 155 0
2450 -40 -97 -155 0
-2451 2441 2442 0
-2451 -2441 -2442 0
2451 -2441 2442 0
2451 2441 -2442 0
-2452 2451 2443 0
-2452 -2451 -2443 0
2452 -2451 2443 0
2452 2451 -2443 0
-2453 2452 2444 0
-2453 -2452 -2444 0
2453 -2452 2444 0
2453 2452 -2444 0
-2454 2453 2445 0
-2454 -2453 -2445 0
2454 -2453 2445 0
2454 2453 -2445 0
-2455 2454 2446 0
-2455 -2454 -2446 0
2455 -2454 2446 0
2455 2454 -2446 0
-2456 2455 2447 0
-2456 -2455 -2447 0
2456 -2455 2447 0
2456 2455 -2447 0
-2457 2456 2448 0
-2457 -2456 -2448 0
2457 -2456 2448 0
2457 2456 -2448 0
-2458 2457 2449 0
-2458 -2457 -2449 0
2458 -2457 2449 0
2458 2457 -2449 0
-2459 2458 2450 0
-2459 -2458 -2450 0
2459 -2458 2450 0
2459 2458 -2450 0
-2459 0
-2460 4 0
-2460 43 0
-2460 102 0
2460 -4 -43 -102 0
-2461 8 0
-2461 49 0
-2461 108 0
2461 -8 -49 -108 0
-2462 12 0
-2462 55 0
-2462 114 0
2462 -12 -55 -114 0
-2463 16 0
-2463 61 0
-2463 120 0
2463 -16 -61 -120 0
-2464 20 0
-2464 67 0
-2464 126 0
2464 -20 -67 -126 0
-2465 24 0
-2465 73 0
-2465 132 0
2465 -24 -73 -132 0
-2466 28 0
-2466 79 0
-2466 138 0
2466 -28 -79 -138 0
-2467 32 0
-2467 85 0
-2467 144 0
2467 -32 -85 -144 0
-2468 36 0
-2468 91 0
-2468 150 0
2468 -36 -91 -150 0
-2469 40 0
-2469 97 0
-2469 156 0
2469 -40 -97 -156 0
-2470 2460 2461 0
-2470 -2460 -2461 0
2470 -2460 2461 0
2470 2460 -2461 0
-2471 2470 2462 0
-2471 -2470 -2462 0
2471 -2470 2462 0
2471 2470 -2462 0
-2472 2471 2463 0
-2472 -2471 -2463 0
2472 -2471 2463 0
2472 2471 -2463 0
-2473 2472 2464 0
-2473 -2472 -2464 0
2473 -2472 2464 0
2473 2472 -2464 0
-2474 2473 2465 0
-2474 -2473 -2465 0
2474 -2473 2465 0
2474 2473 -2465 0
-2475 2474 2466 0
-2475 -2474 -2466 0
2475 -2474 2466 0
2475 2474 -2466 0
-2476 2475 2467 0
-2476 -2475 -2467 0
2476 -2475 2467 0
2476 2475 -2467 0
-2477 2476 2468 0
-2477 -2476 -2468 0
2477 -2476 2468 0
2477 2476 -2468 0
-2478 2477 2469 0
-2478 -2477 -2469 0
2478 -2477 2469 0
2478 2477 -2469 0
-2478 0
-2479 4 0
-2479 43 0
-2479 103 0
2479 -4 -43 -103 0
-2480 8 0
-2480 49 0
-2480 109 0
2480 -8 -49 -109 0
-2481 12 0
-2481 55 0
-2481 115 0
2481 -12 -55 -115 0
-2482 16 0
-2482 61 0
-2482 121 0
2482 -16 -61 -121 0
-2483 20 0
-2483 67 0
-2483 127 0
2483 -20 -67 -127 0
-2484 24 0
-2484 73 0
-2484 133 0
2484 -24 -73 -133 0
-2485 28 0
-2485 79 0
-2485 139 0
2485 -28 -79 -139 0
-2486 32 0
-2486 85 0
-2486 145 0
2486 -32 -85 -145 0
-2487 36 0
-2487 91 0
-2487 151 0
2487 -36 -91 -151 0
-2488 40 0
-2488 97 0
-2488 157 0
2488 -40 -97 -157 0
-2489 2479 2480 0
-2489 -2479 -2480 0
2489 -2479 2480 0
2489 2479 -2480 0
-2490 2489 2481 0
-2490 -2489 -2481 0
2490 -2489 2481 0
2490 2489 -2481 0
-2491 2490 2482 0
-2491 -2490 -2482 0
2491 -2490 2482 0
2491 2490 -2482 0
-2492 2491 2483 0
-2492 -2491 -2483 0
2492 -2491 2483 0
2492 2491 -2483 0
-2493 2492 2484 0
-2493 -2492 -2484 0
2493 -2492 2484 0
2493 2492 -2484 0
-2494 2493 2485 0
-2494 -2493 -2485 0
2494 -2493 2485 0
2494 2493 -2485 0
-2495 2494 2486 0
-2495 -2494 -2486 0
2495 -2494 2486 0
2495 2494 -2486 0
-2496 2495 2487 0
-2496 -2495 -2487 0
2496 -2495 2487 0
2496 2495 -2487 0
-2497 2496 2488 0
-2497 -2496 -2488 0
2497 -2496 2488 0
2497 2496 -2488 0
-2497 0
-2498 4 0
-2498 43 0
-2498 104 0
2498 -4 -43 -104 0
-2499 8 0
-2499 49 0
-2499 110 0
2499 -8 -49 -110 0
-2500 12 0
-2500 55 0
-2500 116 0
2500 -12 -55 -116 0
-2501 16 0
-2501 61 0
-2501 122 0
2501 -16 -61 -122 0
-2502 20 0
-2502 67 0
-2502 128 0
2502 -20 -67 -128 0
-2503 24 0
-2503 73 0
-2503 134 0
2503 -24 -73 -134 0
-2504 28 0
-2504 79 0
-2504 140 0
2504 -28 -79 -140 0
-2505 32 0
-2505 85 0
-2505 146 0
2505 -32 -85 -146 0
-2506 36 0
-2506 91 0
-2506 152 0
2506 -36 -91 -152 0
-2507 40 0
-2507 97 0
-2507 158 0
2507 -40 -97 -158 0
-2508 2498 2499 0
-2508 -2498 -2499 0
2508 -2498 2499 0
2508 2498 -2499 0
-2509 2508 2500 0
-2509 -2508 -2500 0
2509 -2508 2500 0
2509 2508 -2500 0
-2510 2509 2501 0
-2510 -2509 -2501 0
2510 -2509 2501 0
2510 2509 -2501 0
-2511 2510 2502 0
-2511 -2510 -2502 0
2511 -2510 2502 0
2511 2510 -2502 0
-2512 2511 2503 0
-2512 -2511 -2503 0
2512 -2511 2503 0
2512 2511 -2503 0
-2513 2512 2504 0
-2513 -2512 -2504 0
2513 -2512 2504 0
2513 2512 -2504 0
-2514 2513 2505 0
-2514 -2513 -2505 0
2514 -2513 2505 0
2514 2513 -2505 0
-2515 2514 2506 0
-2515 -2514 -2506 0
2515 -2514 2506 0
2515 2514 -2506 0
-2516 2515 2507 0
-2516 -2515 -2507 0
2516 -2515 2507 0
2516 2515 -2507 0
-2516 0
-2517 4 0
-2517 43 0
-2517 105 0
2517 -4 -43 -105 0
-2518 8 0
-2518 49 0
-2518 111 0
2518 -8 -49 -111 0
-2519 12 0
-2519 55 0
-2519 117 0
2519 -12 -55 -117 0
-2520 16 0
-2520 61 0
-2520 123 0
2520 -16 -61 -123 0
-2521 20 0
-2521 67 0
-2521 129 0
2521 -20 -67 -129 0
-2522 24 0
-2522 73 0
-2522 135 0
2522 -24 -73 -135 0
-2523 28 0
-2523 79 0
-2523 141 0
2523 -28 -79 -141 0
-2524 32 0
-2524 85 0
-2524 147 0
2524 -32 -85 -147 0
-2525 36 0
-2525 91 0
-2525 153 0
2525 -36 -91 -153 0
-2526 40 0
-2526 97 0
-2526 159 0
2526 -40 -97 -159 0
-2527 2517 2518 0
-2527 -2517 -2518 0
2527 -2517 2518 0
2527 2517 -2518 0
-2528 2527 2519 0
-2528 -2527 -2519 0
2528 -2527 2519 0
2528 2527 -2519 0
-2529 2528 2520 0
-2529 -2528 -2520 0
2529 -2528 2520 0
2529 2528 -2520 0
-2530 2529 2521 0
-2530 -2529 -2521 0
2530 -2529 2521 0
2530 2529 -2521 0
-2531 2530 2522 0
-2531 -2530 -2522 0
2531 -2530 2522 0
2531 2530 -2522 0
-2532 2531 2523 0
-2532 -2531 -2523 0
2532 -2531 2523 0
2532 2531 -2523 0
-2533 2532 2524 0
-2533 -2532 -2524 0
2533 -2532 2524 0
2533 2532 -2524 0
-2534 2533 2525 0
-2534 -2533 -2525 0
2534 -2533 2525 0
2534 2533 -2525 0
-2535 2534 2526 0
-2535 -2534 -2526 0
2535 -2534 2526 0
2535 2534 -2526 0
-2535 0
-2536 4 0
-2536 43 0
-2536 106 0
2536 -4 -43 -106 0
-2537 8 0
-2537 49 0
-2537 112 0
2537 -8 -49 -112 0
-2538 12 0
-2538 55 0
-2538 118 0
2538 -12 -55 -118 0
-2539 16 0
-2539 61 0
-2539 124 0
2539 -16 -61 -124 0
-2540 20 0
-2540 67 0
-2540 130 0
2540 -20 -67 -130 0
-2541 24 0
-2541 73 0
-2541 136 0
2541 -24 -73 -136 0
-2542 28 0
-2542 79 0
-2542 142 0
2542 -28 -79 -142 0
-2543 32 0
-2543 85 0
-2543 148 0
2543 -32 -85 -148 0
-2544 36 0
-2544 91 0
-2544 154 0
2544 -36 -91 -154 0
-2545 40 0
-2545 97 0
-2545 160 0
2545 -40 -97 -160 0
-2546 2536 2537 0
-2546 -2536 -2537 0
2546 -2536 2537 0
2546 2536 -2537 0
-2547 2546 2538 0
-2547 -2546 -2538 0
2547 -2546 2538 0
2547 2546 -2538 0
-2548 2547 2539 0
-2548 -2547 -2539 0
2548 -2547 2539 0
2548 2547 -2539 0
-2549 2548 2540 0
-2549 -2548 -2540 0
2549 -2548 2540 0
2549 2548 -2540 0
-2550 2549 2541 0
-2550 -2549 -2541 0
2550 -2549 2541 0
2550 2549 -2541 0
-2551 2550 2542 0
-2551 -2550 -2542 0
2551 -2550 2542 0
2551 2550 -2542 0
-2552 2551 2543 0
-2552 -2551 -2543 0
2552 -2551 2543 0
2552 2551 -2543 0
-2553 2552 2544 0
-2553 -2552 -2544 0
2553 -2552 2544 0
2553 2552 -2544 0
-2554 2553 2545 0
-2554 -2553 -2545 0
2554 -2553 2545 0
2554 2553 -2545 0
-2554 0
-2555 4 0
-2555 44 0
-2555 101 0
2555 -4 -44 -101 0
-2556 8 0
-2556 50 0
-2556 107 0
2556 -8 -50 -107 0
-2557 12 0
-2557 56 0
-2557 113 0
2557 -12 -56 -113 0
-2558 16 0
-2558 62 0
-2558 119 0
2558 -16 -62 -119 0
-2559 20 0
-2559 68 0
-2559 125 0
2559 -20 -68 -125 0
-2560 24 0
-2560 74 0
-2560 131 0
2560 -24 -74 -131 0
-2561 28 0
-2561 80 0
-2561 137 0
2561 -28 -80 -137 0
-2562 32 0
-2562 86 0
-2562 143 0
2562 -32 -86 -143 0
-2563 36 0
-2563 92 0
-2563 149 0
2563 -36 -92 -149 0
-2564 40 0
-2564 98 0
-2564 155 0
2564 -40 -98 -155 0
-2565 2555 2556 0
-2565 -2555 -2556 0
2565 -2555 2556 0
2565 2555 -2556 0
-2566 2565 2557 0
-2566 -2565 -2557 0
2566 -2565 2557 0
2566 2565 -2557 0
-2567 2566 2558 0
-2567 -2566 -2558 0
2567 -2566 2558 0
2567 2566 -2558 0
-2568 2567 2559 0
-2568 -2567 -2559 0
2568 -2567 2559 0
2568 2567 -2559 0
-2569 2568 2560 0
-2569 -2568 -2560 0
2569 -2568 2560 0
2569 2568 -2560 0
-2570 2569 2561 0
-2570 -2569 -2561 0
2570 -2569 2561 0
2570 2569 -2561 0
-2571 2570 2562 0
-2571 -2570 -2562 0
2571 -2570 2562 0
2571 2570 -2562 0
-2572 2571 2563 0
-2572 -2571 -2563 0
2572 -2571 2563 0
2572 2571 -2563 0
-2573 2572 2564 0
-2573 -2572 -2564 0
2573 -2572 2564 0
2573 2572 -2564 0
-2573 0
-2574 4 0
-2574 44 0
-2574 102 0
2574 -4 -44 -102 0
-2575 8 0
-2575 50 0
-2575 108 0
2575 -8 -50 -108 0
-2576 12 0
-2576 56 0
-2576 114 0
2576 -12 -56 -114 0
-2577 16 0
-2577 62 0
-2577 120 0
2577 -16 -62 -120 0
-2578 20 0
-2578 68 0
-2578 126 0
2578 -20 -68 -126 0
-2579 24 0
-2579 74 0
-2579 132 0
2579 -24 -74 -132 0
-2580 28 0
-2580 80 0
-2580 138 0
2580 -28 -80 -138 0
-2581 32 0
-2581 86 0
-2581 144 0
2581 -32 -86 -144 0
-2582 36 0
-2582 92 0
-2582 150 0
2582 -36 -92 -150 0
-2583 40 0
-2583 98 0
-2583 156 0
2583 -40 -98 -156 0
-2584 2574 2575 0
-2584 -2574 -2575 0
2584 -2574 2575 0
2584 2574 -2575 0
-2585 2584 2576 0
-2585 -2584 -2576 0
2585 -2584 2576 0
2585 2584 -2576 0
-2586 2585 2577 0
-2586 -2585 -2577 0
2586 -2585 2577 0
2586 2585 -2577 0
-2587 2586 2578 0
-2587 -2586 -2578 0
2587 -2586 2578 0
2587 2586 -2578 0
-2588 2587 2579 0
-2588 -2587 -2579 0
2588 -2587 2579 0
2588 2587 -2579 0
-2589 2588 2580 0
-2589 -2588 -2580 0
2589 -2588 2580 0
2589 2588 -2580 0
-2590 2589 2581 0
-2590 -2589 -2581 0
2590 -2589 2581 0
2590 2589 -2581 0
-2591 2590 2582 0
-2591 -2590 -2582 0
2591 -2590 2582 0
2591 2590 -2582 0
-2592 2591 2583 0
-2592 -2591 -2583 0
2592 -2591 2583 0
2592 2591 -2583 0
-2592 0
-2593 4 0
-2593 44 0
-2593 103 0
2593 -4 -44 -103 0
-2594 8 0
-2594 50 0
-2594 109 0
2594 -8 -50 -109 0
-2595 12 0
-2595 56 0
-2595 115 0
2595 -12 -56 -115 0
-2596 16 0
-2596 62 0
-2596 121 0
2596 -16 -62 -121 0
-2597 20 0
-2597 68 0
-2597 127 0
2597 -20 -68 -127 0
-2598 24 0
-2598 74 0
-2598 133 0
2598 -24 -74 -133 0
-2599 28 0
-2599 80 0
-2599 139 0
2599 -28 -80 -139 0
-2600 32 0
-2600 86 0
-2600 145 0
2600 -32 -86 -145 0
-2601 36 0
-2601 92 0
-2601 151 0
2601 -36 -92 -151 0
-2602 40 0
-2602 98 0
-2602 157 0
2602 -40 -98 -157 0
-2603 2593 2594 0
-2603 -2593 -2594 0
2603 -2593 2594 0
2603 2593 -2594 0
-2604 2603 2595 0
-2604 -2603 -2595 0
2604 -2603 2595 0
2604 2603 -2595 0
-2605 2604 2596 0
-2605 -2604 -2596 0
2605 -2604 2596 0
2605 2604 -2596 0
-2606 2605 2597 0
-2606 -2605 -2597 0
2606 -2605 2597 0
2606 2605 -2597 0
-2607 2606 2598 0
-2607 -2606 -2598 0
2607 -2606 2598 0
2607 2606 -2598 0
-2608 2607 2599 0
-2608 -2607 -2599 0
2608 -2607 2599 0
2608 2607 -2599 0
-2609 2608 2600 0
-2609 -2608 -2600 0
2609 -2608 2600 0
2609 2608 -2600 0
-2610 2609 2601 0
-2610 -2609 -2601 0
2610 -2609 2601 0
2610 2609 -2601 0
-2611 2610 2602 0
-2611 -2610 -2602 0
2611 -2610 2602 0
2611 2610 -2602 0
-2611 0
-2612 4 0
-2612 44 0
-2612 104 0
2612 -4 -44 -104 0
-2613 8 0
-2613 50 0
-2613 110 0
2613 -8 -50 -110 0
-2614 12 0
-2614 56 0
-2614 116 0
2614 -12 -56 -116 0
-2615 16 0
-2615 62 0
-2615 122 0
2615 -16 -62 -122 0
-2616 20 0
-2616 68 0
-2616 128 0
2616 -20 -68 -128 0
-2617 24 0
-2617 74 0
-2617 134 0
2617 -24 -74 -134 0
-2618 28 0
-2618 80 0
-2618 140 0
2618 -28 -80 -140 0
-2619 32 0
-2619 86 0
-2619 146 0
2619 -32 -86 -146 0
-2620 36 0
-2620 92 0
-2620 152 0
2620 -36 -92 -152 0
-2621 40 0
-2621 98 0
-2621 158 0
2621 -40 -98 -158 0
-2622 2612 2613 0
-2622 -2612 -2613 0
2622 -2612 2613 0
2622 2612 -2613 0
-2623 2622 2614 0
-2623 -2622 -2614 0
2623 -2622 2614 0
2623 2622 -2614 0
-2624 2623 2615 0
-2624 -2623 -2615 0
2624 -2623 2615 0
2624 2623 -2615 0
-2625 2624 2616 0
-2625 -2624 -2616 0
2625 -2624 2616 0
2625 2624 -2616 0
-2626 2625 2617 0
-2626 -2625 -2617 0
2626 -2625 2617 0
2626 2625 -2617 0
-2627 2626 2618 0
-2627 -2626 -2618 0
2627 -2626 2618 0
2627 2626 -2618 0
-2628 2627 2619 0
-2628 -2627 -2619 0
2628 -2627 2619 0
2628 2627 -2619 0
-2629 2628 2620 0
-2629 -2628 -2620 0
2629 -2628 2620 0
2629 2628 -2620 0
-2630 2629 2621 0
-2630 -2629 -2621 0
2630 -2629 2621 0
2630 2629 -2621 0
2630 0
-2631 4 0
-2631 44 0
-2631 105 0
2631 -4 -44 -105 0
-2632 8 0
-2632 50 0
-2632 111 0
2632 -8 -50 -111 0
-2633 12 0
-2633 56 0
-2633 117 0
2633 -12 -56 -117 0
-2634 16 0
-2634 62 0
-2634 123 0
2634 -16 -62 -123 0
-2635 20 0
-2635 68 0
-2635 129 0
2635 -20 -68 -129 0
-2636 24 0
-2636 74 0
-2636 135 0
2636 -24 -74 -135 0
-2637 28 0
-2637 80 0
-2637 141 0
2637 -28 -80 -141 0
-2638 32 0
-2638 86 0
-2638 147 0
2638 -32 -86 -147 0
-2639 36 0
-2639 92 0
-2639 153 0
2639 -36 -92 -153 0
-2640 40 0
-2640 98 0
-2640 159 0
2640 -40 -98 -159 0
-2641 2631 2632 0
-2641 -2631 -2632 0
2641 -2631 2632 0
2641 2631 -2632 0
-2642 2641 2633 0
-2642 -2641 -2633 0
2642 -2641 2633 0
2642 2641 -2633 0
-2643 2642 2634 0
-2643 -2642 -2634 0
2643 -2642 2634 0
2643 2642 -2634 0
-2644 2643 2635 0
-2644 -2643 -2635 0
2644 -2643 2635 0
2644 2643 -2635 0
-2645 2644 2636 0
-2645 -2644 -2636 0
2645 -2644 2636 0
2645 2644 -2636 0
-2646 2645 2637 0
-2646 -2645 -2637 0
2646 -2645 2637 0
2646 2645 -2637 0
-2647 2646 2638 0
-2647 -2646 -2638 0
2647 -2646 2638 0
2647 2646 -2638 0
-2648 2647 2639 0
-2648 -2647 -2639 0
2648 -2647 2639 0
2648 2647 -2639 0
-2649 2648 2640 0
-2649 -2648 -2640 0
2649 -2648 2640 0
2649 2648 -2640 0
-2649 0
-2650 4 0
-2650 44 0
-2650 106 0
2650 -4 -44 -106 0
-2651 8 0
-2651 50 0
-2651 112 0
2651 -8 -50 -112 0
-2652 12 0
-2652 56 0
-2652 118 0
2652 -12 -56 -118 0
-2653 16 0
-2653 62 0
-2653 124 0
2653 -16 -62 -124 0
-2654 20 0
-2654 68 0
-2654 130 0
2654 -20 -68 -130 0
-2655 24 0
-2655 74 0
-2655 136 0
2655 -24 -74 -136 0
-2656 28 0
-2656 80 0
-2656 142 0
2656 -28 -80 -142 0
-2657 32 0
-2657 86 0
-2657 148 0
2657 -32 -86 -148 0
-2658 36 0
-2658 92 0
-2658 154 0
2658 -36 -92 -154 0
-2659 40 0
-2659 98 0
-2659 160 0
2659 -40 -98 -160 0
-2660 2650 2651 0
-2660 -2650 -2651 0
2660 -2650 2651 0
2660 2650 -2651 0
-2661 2660 2652 0
-2661 -2660 -2652 0
2661 -2660 2652 0
2661 2660 -2652 0
-2662 2661 2653 0
-2662 -2661 -2653 0
2662 -2661 2653 0
2662 2661 -2653 0
-2663 2662 2654 0
-2663 -2662 -2654 0
2663 -2662 2654 0
2663 2662 -2654 0
-2664 2663 2655 0
-2664 -2663 -2655 0
2664 -2663 2655 0
2664 2663 -2655 0
-2665 2664 2656 0
-2665 -2664 -2656 0
2665 -2664 2656 0
2665 2664 -2656 0
-2666 2665 2657 0
-2666 -2665 -2657 0
2666 -2665 2657 0
2666 2665 -2657 0
-2667 2666 2658 0
-2667 -2666 -2658 0
2667 -2666 2658 0
2667 2666 -2658 0
-2668 2667 2659 0
-2668 -2667 -2659 0
2668 -2667 2659 0
2668 2667 -2659 0
-2668 0
-2669 4 0
-2669 45 0
-2669 101 0
2669 -4 -45 -101 0
-2670 8 0
-2670 51 0
-2670 107 0
2670 -8 -51 -107 0
-2671 12 0
-2671 57 0
-2671 113 0
2671 -12 -57 -113 0
-2672 16 0
-2672 63 0
-2672 119 0
2672 -16 -63 -119 0
-2673 20 0
-2673 69 0
-2673 125 0
2673 -20 -69 -125 0
-2674 24 0
-2674 75 0
-2674 131 0
2674 -24 -75 -131 0
-2675 28 0
-2675 81 0
-2675 137 0
2675 -28 -81 -137 0
-2676 32 0
-2676 87 0
-2676 143 0
2676 -32 -87 -143 0
-2677 36 0
-2677 93 0
-2677 149 0
2677 -36 -93 -149 0
-2678 40 0
-2678 99 0
-2678 155 0
2678 -40 -99 -155 0
-2679 2669 2670 0
-2679 -2669 -2670 0
2679 -2669 2670 0
2679 2669 -2670 0
-2680 2679 2671 0
-2680 -2679 -2671 0
2680 -2679 2671 0
2680 2679 -2671 0
-2681 2680 2672 0
-2681 -2680 -2672 0
2681 -2680 2672 0
2681 2680 -2672 0
-2682 2681 2673 0
-2682 -2681 -2673 0
2682 -2681 2673 0
2682 2681 -2673 0
-2683 2682 2674 0
-2683 -2682 -2674 0
2683 -2682 2674 0
2683 2682 -2674 0
-2684 2683 2675 0
-2684 -2683 -2675 0
2684 -2683 2675 0
2684 2683 -2675 0
-2685 2684 2676 0
-2685 -2684 -2676 0
2685 -2684 2676 0
2685 2684 -2676 0
-2686 2685 2677 0
-2686 -2685 -2677 0
2686 -2685 2677 0
2686 2685 -2677 0
-2687 2686 2678 0
-2687 -2686 -2678 0
2687 -2686 2678 0
2687 2686 -2678 0
-2687 0
-2688 4 0
-2688 45 0
-2688 102 0
2688 -4 -45 -102 0
-2689 8 0
-2689 51 0
-2689 108 0
2689 -8 -51 -108 0
-2690 12 0
-2690 57 0
-2690 114 0
2690 -12 -57 -114 0
-2691 16 0
-2691 63 0
-2691 120 0
2691 -16 -63 -120 0
-2692 20 0
-2692 69 0
-2692 126 0
2692 -20 -69 -126 0
-2693 24 0
-2693 75 0
-2693 132 0
2693 -24 -75 -132 0
-2694 28 0
-2694 81 0
-2694 138 0
2694 -28 -81 -138 0
-2695 32 0
-2695 87 0
-2695 144 0
2695 -32 -87 -144 0
-2696 36 0
-2696 93 0
-2696 150 0
2696 -36 -93 -150 0
-2697 40 0
-2697 99 0
-2697 156 0
2697 -40 -99 -156 0
-2698 2688 2689 0
-2698 -2688 -2689 0
2698 -2688 2689 0
2698 2688 -2689 0
-2699 2698 2690 0
-2699 -2698 -2690 0
2699 -2698 2690 0
2699 2698 -2690 0
-2700 2699 2691 0
-2700 -2699 -2691 0
2700 -2699 2691 0
2700 2699 -2691 0
-2701 2700 2692 0
-2701 -2700 -2692 0
2701 -2700 2692 0
2701 2700 -2692 0
-2702 2701 2693 0
-2702 -2701 -2693 0
2702 -2701 2693 0
2702 2701 -2693 0
-2703 2702 2694 0
-2703 -2702 -2694 0
2703 -2702 2694 0
2703 2702 -2694 0
-2704 2703 2695 0
-2704 -2703 -2695 0
2704 -2703 2695 0
2704 2703 -2695 0
-2705 2704 2696 0
-2705 -2704 -2696 0
2705 -2704 2696 0
2705 2704 -2696 0
-2706 2705 2697 0
-2706 -2705 -2697 0
2706 -2705 2697 0
2706 2705 -2697 0
-2706 0
-2707 4 0
-2707 45 0
-2707 103 0
2707 -4 -45 -103 0
-2708 8 0
-2708 51 0
-2708 109 0
2708 -8 -51 -109 0
-2709 12 0
-2709 57 0
-2709 115 0
2709 -12 -57 -115 0
-2710 16 0
-2710 63 0
-2710 121 0
2710 -16 -63 -121 0
-2711 20 0
-2711 69 0
-2711 127 0
2711 -20 -69 -127 0
-2712 24 0
-2712 75 0
-2712 133 0
2712 -24 -75 -133 0
-2713 28 0
-2713 81 0
-2713 139 0
2713 -28 -81 -139 0
-2714 32 0
-2714 87 0
-2714 145 0
2714 -32 -87 -145 0
-2715 36 0
-2715 93 0
-2715 151 0
2715 -36 -93 -151 0
-2716 40 0
-2716 99 0
-2716 157 0
2716 -40 -99 -157 0
-2717 2707 2708 0
-2717 -2707 -2708 0
2717 -2707 2708 0
2717 2707 -2708 0
-2718 2717 2709 0
-2718 -2717 -2709 0
2718 -2717 2709 0
2718 2717 -2709 0
-2719 2718 2710 0
-2719 -2718 -2710 0
2719 -2718 2710 0
2719 2718 -2710 0
-2720 2719 2711 0
-2720 -2719 -2711 0
2720 -2719 2711 0
2720 2719 -2711 0
-2721 2720 2712 0
-2721 -2720 -2712 0
2721 -2720 2712 0
2721 2720 -2712 0
-2722 2721 2713 0
-2722 -2721 -2713 0
2722 -2721 2713 0
2722 2721 -2713 0
-2723 2722 2714 0
-2723 -2722 -2714 0
2723 -2722 2714 0
2723 2722 -2714 0
-2724 2723 2715 0
-2724 -2723 -2715 0
2724 -2723 2715 0
2724 2723 -2715 0
-2725 2724 2716 0
-2725 -2724 -2716 0
2725 -2724 2716 0
2725 2724 -2716 0
-2725 0
-2726 4 0
-2726 45 0
-2726 104 0
2726 -4 -45 -104 0
-2727 8 0
-2727 51 0
-2727 110 0
2727 -8 -51 -110 0
-2728 12 0
-2728 57 0
-2728 116 0
2728 -12 -57 -116 0
-2729 16 0
-2729 63 0
-2729 122 0
2729 -16 -63 -122 0
-2730 20 0
-2730 69 0
-2730 128 0
2730 -20 -69 -128 0
-2731 24 0
-2731 75 0
-2731 134 0
2731 -24 -75 -134 0
-2732 28 0
-2732 81 0
-2732 140 0
2732 -28 -81 -140 0
-2733 32 0
-2733 87 0
-2733 146 0
2733 -32 -87 -146 0
-2734 36 0
-2734 93 0
-2734 152 0
2734 -36 -93 -152 0
-2735 40 0
-2735 99 0
-2735 158 0
2735 -40 -99 -158 0
-2736 2726 2727 0
-2736 -2726 -2727 0
2736 -2726 2727 0
2736 2726 -2727 0
-2737 2736 2728 0
-2737 -2736 -2728 0
2737 -2736 2728 0
2737 2736 -2728 0
-2738 2737 2729 0
-2738 -2737 -2729 0
2738 -2737 2729 0
2738 2737 -2729 0
-2739 2738 2730 0
-2739 -2738 -2730 0
2739 -2738 2730 0
2739 2738 -2730 0
-2740 2739 2731 0
-2740 -2739 -2731 0
2740 -2739 2731 0
2740 2739 -2731 0
-2741 2740 2732 0
-2741 -2740 -2732 0
2741 -2740 2732 0
2741 2740 -2732 0
-2742 2741 2733 0
-2742 -2741 -2733 0
2742 -2741 2733 0
2742 2741 -2733 0
-2743 2742 2734 0
-2743 -2742 -2734 0
2743 -2742 2734 0
2743 2742 -2734 0
-2744 2743 2735 0
-2744 -2743 -2735 0
2744 -2743 2735 0
2744 2743 -2735 0
-2744 0
-2745 4 0
-2745 45 0
-2745 105 0
2745 -4 -45 -105 0
-2746 8 0
-2746 51 0
-2746 111 0
2746 -8 -51 -111 0
-2747 12 0
-2747 57 0
-2747 117 0
2747 -12 -57 -117 0
-2748 16 0
-2748 63 0
-2748 123 0
2748 -16 -63 -123 0
-2749 20 0
-2749 69 0
-2749 129 0
2749 -20 -69 -129 0
-2750 24 0
-2750 75 0
-2750 135 0
2750 -24 -75 -135 0
-2751 28 0
-2751 81 0
-2751 141 0
2751 -28 -81 -141 0
-2752 32 0
-2752 87 0
-2752 147 0
2752 -32 -87 -147 0
-2753 36 0
-2753 93 0
-2753 153 0
2753 -36 -93 -153 0
-2754 40 0
-2754 99 0
-2754 159 0
2754 -40 -99 -159 0
-2755 2745 2746 0
-2755 -2745 -2746 0
2755 -2745 2746 0
2755 2745 -2746 0
-2756 2755 2747 0
-2756 -2755 -2747 0
2756 -2755 2747 0
2756 2755 -2747 0
-2757 2756 2748 0
-2757 -2756 -2748 0
2757 -2756 2748 0
2757 2756 -2748 0
-2758 2757 2749 0
-2758 -2757 -2749 0
2758 -2757 2749 0
2758 2757 -2749 0
-2759 2758 2750 0
-2759 -2758 -2750 0
2759 -2758 2750 0
2759 2758 -2750 0
-2760 2759 2751 0
-2760 -2759 -2751 0
2760 -2759 2751 0
2760 2759 -2751 0
-2761 2760 2752 0
-2761 -2760 -2752 0
2761 -2760 2752 0
2761 2760 -2752 0
-2762 2761 2753 0
-2762 -2761 -2753 0
2762 -2761 2753 0
2762 2761 -2753 0
-2763 2762 2754 0
-2763 -2762 -2754 0
2763 -2762 2754 0
2763 2762 -2754 0
2763 0
-2764 4 0
-2764 45 0
-2764 106 0
2764 -4 -45 -106 0
-2765 8 0
-2765 51 0
-2765 112 0
2765 -8 -51 -112 0
-2766 12 0
-2766 57 0
-2766 118 0
2766 -12 -57 -118 0
-2767 16 0
-2767 63 0
-2767 124 0
2767 -16 -63 -124 0
-2768 20 0
-2768 69 0
-2768 130 0
2768 -20 -69 -130 0
-2769 24 0
-2769 75 0
-2769 136 0
2769 -24 -75 -136 0
-2770 28 0
-2770 81 0
-2770 142 0
2770 -28 -81 -142 0
-2771 32 0
-2771 87 0
-2771 148 0
2771 -32 -87 -148 0
-2772 36 0
-2772 93 0
-2772 154 0
2772 -36 -93 -154 0
-2773 40 0
-2773 99 0
-2773 160 0
2773 -40 -99 -160 0
-2774 2764 2765 0
-2774 -2764 -2765 0
2774 -2764 2765 0
2774 2764 -2765 0
-2775 2774 2766 0
-2775 -2774 -2766 0
2775 -2774 2766 0
2775 2774 -2766 0
-2776 2775 2767 0
-2776 -2775 -2767 0
2776 -2775 2767 0
2776 2775 -2767 0
-2777 2776 2768 0
-2777 -2776 -2768 0
2777 -2776 2768 0
2777 2776 -2768 0
-2778 2777 2769 0
-2778 -2777 -2769 0
2778 -2777 2769 0
2778 2777 -2769 0
-2779 2778 2770 0
-2779 -2778 -2770 0
2779 -2778 2770 0
2779 2778 -2770 0
-2780 2779 2771 0
-2780 -2779 -2771 0
2780 -2779 2771 0
2780 2779 -2771 0
-2781 2780 2772 0
-2781 -2780 -2772 0
2781 -2780 2772 0
2781 2780 -2772 0
-2782 2781 2773 0
-2782 -2781 -2773 0
2782 -2781 2773 0
2782 2781 -2773 0
-2782 0
-2783 4 0
-2783 46 0
-2783 101 0
2783 -4 -46 -101 0
-2784 8 0
-2784 52 0
-2784 107 0
2784 -8 -52 -107 0
-2785 12 0
-2785 58 0
-2785 113 0
2785 -12 -58 -113 0
-2786 16 0
-2786 64 0
-2786 119 0
2786 -16 -64 -119 0
-2787 20 0
-2787 70 0
-2787 125 0
2787 -20 -70 -125 0
-2788 24 0
-2788 76 0
-2788 131 0
2788 -24 -76 -131 0
-2789 28 0
-2789 82 0
-2789 137 0
2789 -28 -82 -137 0
-2790 32 0
-2790 88 0
-2790 143 0
2790 -32 -88 -143 0
-2791 36 0
-2791 94 0
-2791 149 0
2791 -36 -94 -149 0
-2792 40 0
-2792 100 0
-2792 155 0
2792 -40 -100 -155 0
-2793 2783 2784 0
-2793 -2783 -2784 0
2793 -2783 2784 0
2793 2783 -2784 0
-2794 2793 2785 0
-2794 -2793 -2785 0
2794 -2793 2785 0
2794 2793 -2785 0
-2795 2794 2786 0
-2795 -2794 -2786 0
2795 -2794 2786 0
2795 2794 -2786 0
-2796 2795 2787 0
-2796 -2795 -2787 0
2796 -2795 2787 0
2796 2795 -2787 0
-2797 2796 2788 0
-2797 -2796 -2788 0
2797 -2796 2788 0
2797 2796 -2788 0
-2798 2797 2789 0
-2798 -2797 -2789 0
2798 -2797 2789 0
2798 2797 -2789 0
-2799 2798 2790 0
-2799 -2798 -2790 0
2799 -2798 2790 0
2799 2798 -2790 0
-2800 2799 2791 0
-2800 -2799 -2791 0
2800 -2799 2791 0
2800 2799 -2791 0
-2801 2800 2792 0
-2801 -2800 -2792 0
2801 -2800 2792 0
2801 2800 -2792 0
-2801 0
-2802 4 0
-2802 46 0
-2802 102 0
2802 -4 -46 -102 0
-2803 8 0
-2803 52 0
-2803 108 0
2803 -8 -52 -108 0
-2804 12 0
-2804 58 0
-2804 114 0
2804 -12 -58 -114 0
-2805 16 0
-2805 64 0
-2805 120 0
2805 -16 -64 -120 0
-2806 20 0
-2806 70 0
-2806 126 0
2806 -20 -70 -126 0
-2807 24 0
-2807 76 0
-2807 132 0
2807 -24 -76 -132 0
-2808 28 0
-2808 82 0
-2808 138 0
2808 -28 -82 -138 0
-2809 32 0
-2809 88 0
-2809 144 0
2809 -32 -88 -144 0
-2810 36 0
-2810 94 0
-2810 150 0
2810 -36 -94 -150 0
-2811 40 0
-2811 100 0
-2811 156 0
2811 -40 -100 -156 0
-2812 2802 2803 0
-2812 -2802 -2803 0
2812 -2802 2803 0
2812 2802 -2803 0
-2813 2812 2804 0
-2813 -2812 -2804 0
2813 -2812 2804 0
2813 2812 -2804 0
-2814 2813 2805 0
-2814 -2813 -2805 0
2814 -2813 2805 0
2814 2813 -2805 0
-2815 2814 2806 0
-2815 -2814 -2806 0
2815 -2814 2806 0
2815 2814 -2806 0
-2816 2815 2807 0
-2816 -2815 -2807 0
2816 -2815 2807 0
2816 2815 -2807 0
-2817 2816 2808 0
-2817 -2816 -2808 0
2817 -2816 2808 0
2817 2816 -2808 0
-2818 2817 2809 0
-2818 -2817 -2809 0
2818 -2817 2809 0
2818 2817 -2809 0
-2819 2818 2810 0
-2819 -2818 -2810 0
2819 -2818 2810 0
2819 2818 -2810 0
-2820 2819 2811 0
-2820 -2819 -2811 0
2820 -2819 2811 0
2820 2819 -2811 0
-2820 0
-2821 4 0
-2821 46 0
-2821 103 0
2821 -4 -46 -103 0
-2822 8 0
-2822 52 0
-2822 109 0
2822 -8 -52 -109 0
-2823 12 0
-2823 58 0
-2823 115 0
2823 -12 -58 -115 0
-2824 16 0
-2824 64 0
-2824 121 0
2824 -16 -64 -121 0
-2825 20 0
-2825 70 0
-2825 127 0
2825 -20 -70 -127 0
-2826 24 0
-2826 76 0
-2826 133 0
2826 -24 -76 -133 0
-2827 28 0
-2827 82 0
-2827 139 0
2827 -28 -82 -139 0
-2828 32 0
-2828 88 0
-2828 145 0
2828 -32 -88 -145 0
-2829 36 0
-2829 94 0
-2829 151 0
2829 -36 -94 -151 0
-2830 40 0
-2830 100 0
-2830 157 0
2830 -40 -100 -157 0
-2831 2821 2822 0
-2831 -2821 -2822 0
2831 -2821 2822 0
2831 2821 -2822 0
-2832 2831 2823 0
-2832 -2831 -2823 0
2832 -2831 2823 0
2832 2831 -2823 0
-2833 2832 2824 0
-2833 -2832 -2824 0
2833 -2832 2824 0
2833 2832 -2824 0
-2834 2833 2825 0
-2834 -2833 -2825 0
2834 -2833 2825 0
2834 2833 -2825 0
-2835 2834 2826 0
-2835 -2834 -2826 0
2835 -2834 2826 0
2835 2834 -2826 0
-2836 2835 2827 0
-2836 -2835 -2827 0
2836 -2835 2827 0
2836 2835 -2827 0
-2837 2836 2828 0
-2837 -2836 -2828 0
2837 -2836 2828 0
2837 2836 -2828 0
-2838 2837 2829 0
-2838 -2837 -2829 0
2838 -2837 2829 0
2838 2837 -2829 0
-2839 2838 2830 0
-2839 -2838 -2830 0
2839 -2838 2830 0
2839 2838 -2830 0
-2839 0
-2840 4 0
-2840 46 0
-2840 104 0
2840 -4 -46 -104 0
-2841 8 0
-2841 52 0
-2841 110 0
2841 -8 -52 -110 0
-2842 12 0
-2842 58 0
-2842 116 0
2842 -12 -58 -116 0
-2843 16 0
-2843 64 0
-2843 122 0
2843 -16 -64 -122 0
-2844 20 0
-2844 70 0
-2844 128 0
2844 -20 -70 -128 0
-2845 24 0
-2845 76 0
-2845 134 0
2845 -24 -76 -134 0
-2846 28 0
-2846 82 0
-2846 140 0
2846 -28 -82 -140 0
-2847 32 0
-2847 88 0
-2847 146 0
2847 -32 -88 -146 0
-2848 36 0
-2848 94 0
-2848 152 0
2848 -36 -94 -152 0
-2849 40 0
-2849 100 0
-2849 158 0
2849 -40 -100 -158 0
-2850 2840 2841 0
-2850 -2840 -2841 0
2850 -2840 2841 0
2850 2840 -2841 0
-2851 2850 2842 0
-2851 -2850 -2842 0
2851 -2850 2842 0
2851 2850 -2842 0
-2852 2851 2843 0
-2852 -2851 -2843 0
2852 -2851 2843 0
2852 2851 -2843 0
-2853 2852 2844 0
-2853 -2852 -2844 0
2853 -2852 2844 0
2853 2852 -2844 0
-2854 2853 2845 0
-2854 -2853 -2845 0
2854 -2853 2845 0
2854 2853 -2845 0
-2855 2854 2846 0
-2855 -2854 -2846 0
2855 -2854 2846 0
2855 2854 -2846 0
-2856 2855 2847 0
-2856 -2855 -2847 0
2856 -2855 2847 0
2856 2855 -2847 0
-2857 2856 2848 0
-2857 -2856 -2848 0
2857 -2856 2848 0
2857 2856 -2848 0
-2858 2857 2849 0
-2858 -2857 -2849 0
2858 -2857 2849 0
2858 2857 -2849 0
-2858 0
-2859 4 0
-2859 46 0
-2859 105 0
2859 -4 -46 -105 0
-2860 8 0
-2860 52 0
-2860 111 0
2860 -8 -52 -111 0
-2861 12 0
-2861 58 0
-2861 117 0
2861 -12 -58 -117 0
-2862 16 0
-2862 64 0
-2862 123 0
2862 -16 -64 -123 0
-2863 20 0
-2863 70 0
-2863 129 0
2863 -20 -70 -129 0
-2864 24 0
-2864 76 0
-2864 135 0
2864 -24 -76 -135 0
-2865 28 0
-2865 82 0
-2865 141 0
2865 -28 -82 -141 0
-2866 32 0
-2866 88 0
-2866 147 0
2866 -32 -88 -147 0
-2867 36 0
-2867 94 0
-2867 153 0
2867 -36 -94 -153 0
-2868 40 0
-2868 100 0
-2868 159 0
2868 -40 -100 -159 0
-2869 2859 2860 0
-2869 -2859 -2860 0
2869 -2859 2860 0
2869 2859 -2860 0
-2870 2869 2861 0
-2870 -2869 -2861 0
2870 -2869 2861 0
2870 2869 -2861 0
-2871 2870 2862 0
-2871 -2870 -2862 0
2871 -2870 2862 0
2871 2870 -2862 0
-2872 2871 2863 0
-2872 -2871 -2863 0
2872 -2871 2863 0
2872 2871 -2863 0
-2873 2872 2864 0
-2873 -2872 -2864 0
2873 -2872 2864 0
2873 2872 -2864 0
-2874 2873 2865 0
-2874 -2873 -2865 0
2874 -2873 2865 0
2874 2873 -2865 0
-2875 2874 2866 0
-2875 -2874 -2866 0
2875 -2874 2866 0
2875 2874 -2866 0
-2876 2875 2867 0
-2876 -2875 -2867 0
2876 -2875 2867 0
2876 2875 -2867 0
-2877 2876 2868 0
-2877 -2876 -2868 0
2877 -2876 2868 0
2877 2876 -2868 0
-2877 0
-2878 4 0
-2878 46 0
-2878 106 0
2878 -4 -46 -106 0
-2879 8 0
-2879 52 0
-2879 112 0
2879 -8 -52 -112 0
-2880 12 0
-2880 58 0
-2880 118 0
2880 -12 -58 -118 0
-2881 16 0
-2881 64 0
-2881 124 0
2881 -16 -64 -124 0
-2882 20 0
-2882 70 0
-2882 130 0
2882 -20 -70 -130 0
-2883 24 0
-2883 76 0
-2883 136 0
2883 -24 -76 -136 0
-2884 28 0
-2884 82 0
-2884 142 0
2884 -28 -82 -142 0
-2885 32 0
-2885 88 0
-2885 148 0
2885 -32 -88 -148 0
-2886 36 0
-2886 94 0
-2886 154 0
2886 -36 -94 -154 0
-2887 40 0
-2887 100 0
-2887 160 0
2887 -40 -100 -160 0
-2888 2878 2879 0
-2888 -2878 -2879 0
2888 -2878 2879 0
2888 2878 -2879 0
-2889 2888 2880 0
-2889 -2888 -2880 0
2889 -2888 2880 0
2889 2888 -2880 0
-2890 2889 2881 0
-2890 -2889 -2881 0
2890 -2889 2881 0
2890 2889 -2881 0
-2891 2890 2882 0
-2891 -2890 -2882 0
2891 -2890 2882 0
2891 2890 -2882 0
-2892 2891 2883 0
-2892 -2891 -2883 0
2892 -2891 2883 0
2892 2891 -2883 0
-2893 2892 2884 0
-2893 -2892 -2884 0
2893 -2892 2884 0
2893 2892 -2884 0
-2894 2893 2885 0
-2894 -2893 -2885 0
2894 -2893 2885 0
2894 2893 -2885 0
-2895 2894 2886 0
-2895 -2894 -2886 0
2895 -2894 2886 0
2895 2894 -2886 0
-2896 2895 2887 0
-2896 -2895 -2887 0
2896 -2895 2887 0
2896 2895 -2887 0
2896 0
