p cnf 636 2368
-61 1 0
-61 21 0
-61 41 0
61 -1 -21 -41 0
-62 5 0
-62 25 0
-62 45 0
62 -5 -25 -45 0
-63 9 0
-63 29 0
-63 49 0
63 -9 -29 -49 0
-64 13 0
-64 33 0
-64 53 0
64 -13 -33 -53 0
-65 17 0
-65 37 0
-65 57 0
65 -17 -37 -57 0
-66 61 62 0
-66 -61 -62 0
66 -61 62 0
66 61 -62 0
-67 66 63 0
-67 -66 -63 0
67 -66 63 0
67 66 -63 0
-68 67 64 0
-68 -67 -64 0
68 -67 64 0
68 67 -64 0
-69 68 65 0
-69 -68 -65 0
69 -68 65 0
69 68 -65 0
69 0
-70 1 0
-70 21 0
-70 42 0
70 -1 -21 -42 0
-71 5 0
-71 25 0
-71 46 0
71 -5 -25 -46 0
-72 9 0
-72 29 0
-72 50 0
72 -9 -29 -50 0
-73 13 0
-73 33 0
-73 54 0
73 -13 -33 -54 0
-74 17 0
-74 37 0
-74 58 0
74 -17 -37 -58 0
-75 70 71 0
-75 -70 -71 0
75 -70 71 0
75 70 -71 0
-76 75 72 0
-76 -75 -72 0
76 -75 72 0
76 75 -72 0
-77 76 73 0
-77 -76 -73 0
77 -76 73 0
77 76 -73 0
-78 77 74 0
-78 -77 -74 0
78 -77 74 0
78 77 -74 0
-78 0
-79 1 0
-79 21 0
-79 43 0
79 -1 -21 -43 0
-80 5 0
-80 25 0
-80 47 0
80 -5 -25 -47 0
-81 9 0
-81 29 0
-81 51 0
81 -9 -29 -51 0
-82 13 0
-82 33 0
-82 55 0
82 -13 -33 -55 0
-83 17 0
-83 37 0
-83 59 0
83 -17 -37 -59 0
-84 79 80 0
-84 -79 -80 0
84 -79 80 0
84 79 -80 0
-85 84 81 0
-85 -84 -81 0
85 -84 81 0
85 84 -81 0
-86 85 82 0
-86 -85 -82 0
86 -85 82 0
86 85 -82 0
-87 86 83 0
-87 -86 -83 0
87 -86 83 0
87 86 -83 0
-87 0
-88 1 0
-88 21 0
-88 44 0
88 -1 -21 -44 0
-89 5 0
-89 25 0
-89 48 0
89 -5 -25 -48 0
-90 9 0
-90 29 0
-90 52 0
90 -9 -29 -52 0
-91 13 0
-91 33 0
-91 56 0
91 -13 -33 -56 0
-92 17 0
-92 37 0
-92 60 0
92 -17 -37 -60 0
-93 88 89 0
-93 -88 -89 0
93 -88 89 0
93 88 -89 0
-94 93 90 0
-94 -93 -90 0
94 -93 90 0
94 93 -90 0
-95 94 91 0
-95 -94 -91 0
95 -94 91 0
95 94 -91 0
-96 95 92 0
-96 -95 -92 0
96 -95 92 0
96 95 -92 0
-96 0
-97 1 0
-97 22 0
-97 41 0
97 -1 -22 -41 0
-98 5 0
-98 26 0
-98 45 0
98 -5 -26 -45 0
-99 9 0
-99 30 0
-99 49 0
99 -9 -30 -49 0
-100 13 0
-100 34 0
-100 53 0
100 -13 -34 -53 0
-101 17 0
-101 38 0
-101 57 0
101 -17 -38 -57 0
-102 97 98 0
-102 -97 -98 0
102 -97 98 0
102 97 -98 0
-103 102 99 0
-103 -102 -99 0
103 -102 99 0
103 102 -99 0
-104 103 100 0
-104 -103 -100 0
104 -103 100 0
104 103 -100 0
-105 104 101 0
-105 -104 -101 0
105 -104 101 0
105 104 -101 0
-105 0
-106 1 0
-106 22 0
-106 42 0
106 -1 -22 -42 0
-107 5 0
-107 26 0
-107 46 0
107 -5 -26 -46 0
-108 9 0
-108 30 0
-108 50 0
108 -9 -30 -50 0
-109 13 0
-109 34 0
-109 54 0
109 -13 -34 -54 0
-110 17 0
-110 38 0
-110 58 0
110 -17 -38 -58 0
-111 106 107 0
-111 -106 -107 0
111 -106 107 0
111 106 -107 0
-112 111 108 0
-112 -111 -108 0
112 -111 108 0
112 111 -108 0
-113 112 109 0
-113 -112 -109 0
113 -112 109 0
113 112 -109 0
-114 113 110 0
-114 -113 -110 0
114 -113 110 0
114 113 -110 0
114 0
-115 1 0
-115 22 0
-115 43 0
115 -1 -22 -43 0
-116 5 0
-116 26 0
-116 47 0
116 -5 -26 -47 0
-117 9 0
-117 30 0
-117 51 0
117 -9 -30 -51 0
-118 13 0
-118 34 0
-118 55 0
118 -13 -34 -55 0
-119 17 0
-119 38 0
-119 59 0
119 -17 -38 -59 0
-120 115 116 0
-120 -115 -116 0
120 -115 116 0
120 115 -116 0
-121 120 117 0
-121 -120 -117 0
121 -120 117 0
121 120 -117 0
-122 121 118 0
-122 -121 -118 0
122 -121 118 0
122 121 -118 0
-123 122 119 0
-123 -122 -119 0
123 -122 119 0
123 122 -119 0
-123 0
-124 1 0
-124 22 0
-124 44 0
124 -1 -22 -44 0
-125 5 0
-125 26 0
-125 48 0
125 -5 -26 -48 0
-126 9 0
-126 30 0
-126 52 0
126 -9 -30 -52 0
-127 13 0
-127 34 0
-127 56 0
127 -13 -34 -56 0
-128 17 0
-128 38 0
-128 60 0
128 -17 -38 -60 0
-129 124 125 0
-129 -124 -125 0
129 -124 125 0
129 124 -125 0
-130 129 126 0
-130 -129 -126 0
130 -129 126 0
130 129 -126 0
-131 130 127 0
-131 -130 -127 0
131 -130 127 0
131 130 -127 0
-132 131 128 0
-132 -131 -128 0
132 -131 128 0
132 131 -128 0
-132 0
-133 1 0
-133 23 0
-133 41 0
133 -1 -23 -41 0
-134 5 0
-134 27 0
-134 45 0
134 -5 -27 -45 0
-135 9 0
-135 31 0
-135 49 0
135 -9 -31 -49 0
-136 13 0
-136 35 0
-136 53 0
136 -13 -35 -53 0
-137 17 0
-137 39 0
-137 57 0
137 -17 -39 -57 0
-138 133 134 0
-138 -133 -134 0
138 -133 134 0
138 133 -134 0
-139 138 135 0
-139 -138 -135 0
139 -138 135 0
139 138 -135 0
-140 139 136 0
-140 -139 -136 0
140 -139 136 0
140 139 -136 0
-141 140 137 0
-141 -140 -137 0
141 -140 137 0
141 140 -137 0
-141 0
-142 1 0
-142 23 0
-142 42 0
142 -1 -23 -42 0
-143 5 0
-143 27 0
-143 46 0
143 -5 -27 -46 0
-144 9 0
-144 31 0
-144 50 0
144 -9 -31 -50 0
-145 13 0
-145 35 0
-145 54 0
145 -13 -35 -54 0
-146 17 0
-146 39 0
-146 58 0
146 -17 -39 -58 0
-147 142 143 0
-147 -142 -143 0
147 -142 143 0
147 142 -143 0
-148 147 144 0
-148 -147 -144 0
148 -147 144 0
148 147 -144 0
-149 148 145 0
-149 -148 -145 0
149 -148 145 0
149 148 -145 0
-150 149 146 0
-150 -149 -146 0
150 -149 146 0
150 149 -146 0
-150 0
-151 1 0
-151 23 0
-151 43 0
151 -1 -23 -43 0
-152 5 0
-152 27 0
-152 47 0
152 -5 -27 -47 0
-153 9 0
-153 31 0
-153 51 0
153 -9 -31 -51 0
-154 13 0
-154 35 0
-154 55 0
154 -13 -35 -55 0
-155 17 0
-155 39 0
-155 59 0
155 -17 -39 -59 0
-156 151 152 0
-156 -151 -152 0
156 -151 152 0
156 151 -152 0
-157 156 153 0
-157 -156 -153 0
157 -156 153 0
157 156 -153 0
-158 157 154 0
-158 -157 -154 0
158 -157 154 0
158 157 -154 0
-159 158 155 0
-159 -158 -155 0
159 -158 155 0
159 158 -155 0
-159 0
-160 1 0
-160 23 0
-160 44 0
160 -1 -23 -44 0
-161 5 0
-161 27 0
-161 48 0
161 -5 -27 -48 0
-162 9 0
-162 31 0
-162 52 0
162 -9 -31 -52 0
-163 13 0
-163 35 0
-163 56 0
163 -13 -35 -56 0
-164 17 0
-164 39 0
-164 60 0
164 -17 -39 -60 0
-165 160 161 0
-165 -160 -161 0
165 -160 161 0
165 160 -161 0
-166 165 162 0
-166 -165 -162 0
166 -165 162 0
166 165 -162 0
-167 166 163 0
-167 -166 -163 0
167 -166 163 0
167 166 -163 0
-168 167 164 0
-168 -167 -164 0
168 -167 164 0
168 167 -164 0
-168 0
-169 1 0
-169 24 0
-169 41 0
169 -1 -24 -41 0
-170 5 0
-170 28 0
-170 45 0
170 -5 -28 -45 0
-171 9 0
-171 32 0
-171 49 0
171 -9 -32 -49 0
-172 13 0
-172 36 0
-172 53 0
172 -13 -36 -53 0
-173 17 0
-173 40 0
-173 57 0
173 -17 -40 -57 0
-174 169 170 0
-174 -169 -170 0
174 -169 170 0
174 169 -170 0
-175 174 171 0
-175 -174 -171 0
175 -174 171 0
175 174 -171 0
-176 175 172 0
-176 -175 -172 0
176 -175 172 0
176 175 -172 0
-177 176 173 0
-177 -176 -173 0
177 -176 173 0
177 176 -173 0
-177 0
-178 1 0
-178 24 0
-178 42 0
178 -1 -24 -42 0
-179 5 0
-179 28 0
-179 46 0
179 -5 -28 -46 0
-180 9 0
-180 32 0
-180 50 0
180 -9 -32 -50 0
-181 13 0
-181 36 0
-181 54 0
181 -13 -36 -54 0
-182 17 0
-182 40 0
-182 58 0
182 -17 -40 -58 0
-183 178 179 0
-183 -178 -179 0
183 -178 179 0
183 178 -179 0
-184 183 180 0
-184 -183 -180 0
184 -183 180 0
184 183 -180 0
-185 184 181 0
-185 -184 -181 0
185 -184 181 0
185 184 -181 0
-186 185 182 0
-186 -185 -182 0
186 -185 182 0
186 185 -182 0
-186 0
-187 1 0
-187 24 0
-187 43 0
187 -1 -24 -43 0
-188 5 0
-188 28 0
-188 47 0
188 -5 -28 -47 0
-189 9 0
-189 32 0
-189 51 0
189 -9 -32 -51 0
-190 13 0
-190 36 0
-190 55 0
190 -13 -36 -55 0
-191 17 0
-191 40 0
-191 59 0
191 -17 -40 -59 0
-192 187 188 0
-192 -187 -188 0
192 -187 188 0
192 187 -188 0
-193 192 189 0
-193 -192 -189 0
193 -192 189 0
193 192 -189 0
-194 193 190 0
-194 -193 -190 0
194 -193 190 0
194 193 -190 0
-195 194 191 0
-195 -194 -191 0
195 -194 191 0
195 194 -191 0
-195 0
-196 1 0
-196 24 0
-196 44 0
196 -1 -24 -44 0
-197 5 0
-197 28 0
-197 48 0
197 -5 -28 -48 0
-198 9 0
-198 32 0
-198 52 0
198 -9 -32 -52 0
-199 13 0
-199 36 0
-199 56 0
199 -13 -36 -56 0
-200 17 0
-200 40 0
-200 60 0
200 -17 -40 -60 0
-201 196 197 0
-201 -196 -197 0
201 -196 197 0
201 196 -197 0
-202 201 198 0
-202 -201 -198 0
202 -201 198 0
202 201 -198 0
-203 202 199 0
-203 -202 -199 0
203 -202 199 0
203 202 -199 0
-204 203 200 0
-204 -203 -200 0
204 -203 200 0
204 203 -200 0
-204 0
-205 2 0
-205 21 0
-205 41 0
205 -2 -21 -41 0
-206 6 0
-206 25 0
-206 45 0
206 -6 -25 -45 0
-207 10 0
-207 29 0
-207 49 0
207 -10 -29 -49 0
-208 14 0
-208 33 0
-208 53 0
208 -14 -33 -53 0
-209 18 0
-209 37 0
-209 57 0
209 -18 -37 -57 0
-210 205 206 0
-210 -205 -206 0
210 -205 206 0
210 205 -206 0
-211 210 207 0
-211 -210 -207 0
211 -210 207 0
211 210 -207 0
-212 211 208 0
-212 -211 -208 0
212 -211 208 0
212 211 -208 0
-213 212 209 0
-213 -212 -209 0
213 -212 209 0
213 212 -209 0
-213 0
-214 2 0
-214 21 0
-214 42 0
214 -2 -21 -42 0
-215 6 0
-215 25 0
-215 46 0
215 -6 -25 -46 0
-216 10 0
-216 29 0
-216 50 0
216 -10 -29 -50 0
-217 14 0
-217 33 0
-217 54 0
217 -14 -33 -54 0
-218 18 0
-218 37 0
-218 58 0
218 -18 -37 -58 0
-219 214 215 0
-219 -214 -215 0
219 -214 215 0
219 214 -215 0
-220 219 216 0
-220 -219 -216 0
220 -219 216 0
220 219 -216 0
-221 220 217 0
-221 -220 -217 0
221 -220 217 0
221 220 -217 0
-222 221 218 0
-222 -221 -218 0
222 -221 218 0
222 221 -218 0
-222 0
-223 2 0
-223 21 0
-223 43 0
223 -2 -21 -43 0
-224 6 0
-224 25 0
-224 47 0
224 -6 -25 -47 0
-225 10 0
-225 29 0
-225 51 0
225 -10 -29 -51 0
-226 14 0
-226 33 0
-226 55 0
226 -14 -33 -55 0
-227 18 0
-227 37 0
-227 59 0
227 -18 -37 -59 0
-228 223 224 0
-228 -223 -224 0
228 -223 224 0
228 223 -224 0
-229 228 225 0
-229 -228 -225 0
229 -228 225 0
229 228 -225 0
-230 229 226 0
-230 -229 -226 0
230 -229 226 0
230 229 -226 0
-231 230 227 0
-231 -230 -227 0
231 -230 227 0
231 230 -227 0
-231 0
-232 2 0
-232 21 0
-232 44 0
232 -2 -21 -44 0
-233 6 0
-233 25 0
-233 48 0
233 -6 -25 -48 0
-234 10 0
-234 29 0
-234 52 0
234 -10 -29 -52 0
-235 14 0
-235 33 0
-235 56 0
235 -14 -33 -56 0
-236 18 0
-236 37 0
-236 60 0
236 -18 -37 -60 0
-237 232 233 0
-237 -232 -233 0
237 -232 233 0
237 232 -233 0
-238 237 234 0
-238 -237 -234 0
238 -237 234 0
238 237 -234 0
-239 238 235 0
-239 -238 -235 0
239 -238 235 0
239 238 -235 0
-240 239 236 0
-240 -239 -236 0
240 -239 236 0
240 239 -236 0
-240 0
-241 2 0
-241 22 0
-241 41 0
241 -2 -22 -41 0
-242 6 0
-242 26 0
-242 45 0
242 -6 -26 -45 0
-243 10 0
-243 30 0
-243 49 0
243 -10 -30 -49 0
-244 14 0
-244 34 0
-244 53 0
244 -14 -34 -53 0
-245 18 0
-245 38 0
-245 57 0
245 -18 -38 -57 0
-246 241 242 0
-246 -241 -242 0
246 -241 242 0
246 241 -242 0
-247 246 243 0
-247 -246 -243 0
247 -246 243 0
247 246 -243 0
-248 247 244 0
-248 -247 -244 0
248 -247 244 0
248 247 -244 0
-249 248 245 0
-249 -248 -245 0
249 -248 245 0
249 248 -245 0
-249 0
-250 2 0
-250 22 0
-250 42 0
250 -2 -22 -42 0
-251 6 0
-251 26 0
-251 46 0
251 -6 -26 -46 0
-252 10 0
-252 30 0
-252 50 0
252 -10 -30 -50 0
-253 14 0
-253 34 0
-253 54 0
253 -14 -34 -54 0
-254 18 0
-254 38 0
-254 58 0
254 -18 -38 -58 0
-255 250 251 0
-255 -250 -251 0
255 -250 251 0
255 250 -251 0
-256 255 252 0
-256 -255 -252 0
256 -255 252 0
256 255 -252 0
-257 256 253 0
-257 -256 -253 0
257 -256 253 0
257 256 -253 0
-258 257 254 0
-258 -257 -254 0
258 -257 254 0
258 257 -254 0
-258 0
-259 2 0
-259 22 0
-259 43 0
259 -2 -22 -43 0
-260 6 0
-260 26 0
-260 47 0
260 -6 -26 -47 0
-261 10 0
-261 30 0
-261 51 0
261 -10 -30 -51 0
-262 14 0
-262 34 0
-262 55 0
262 -14 -34 -55 0
-263 18 0
-263 38 0
-263 59 0
263 -18 -38 -59 0
-264 259 260 0
-264 -259 -260 0
264 -259 260 0
264 259 -260 0
-265 264 261 0
-265 -264 -261 0
265 -264 261 0
265 264 -261 0
-266 265 262 0
-266 -265 -262 0
266 -265 262 0
266 265 -262 0
-267 266 263 0
-267 -266 -263 0
267 -266 263 0
267 266 -263 0
-267 0
-268 2 0
-268 22 0
-268 44 0
268 -2 -22 -44 0
-269 6 0
-269 26 0
-269 48 0
269 -6 -26 -48 0
-270 10 0
-270 30 0
-270 52 0
270 -10 -30 -52 0
-271 14 0
-271 34 0
-271 56 0
271 -14 -34 -56 0
-272 18 0
-272 38 0
-272 60 0
272 -18 -38 -60 0
-273 268 269 0
-273 -268 -269 0
273 -268 269 0
273 268 -269 0
-274 273 270 0
-274 -273 -270 0
274 -273 270 0
274 273 -270 0
-275 274 271 0
-275 -274 -271 0
275 -274 271 0
275 274 -271 0
-276 275 272 0
-276 -275 -272 0
276 -275 272 0
276 275 -272 0
-276 0
-277 2 0
-277 23 0
-277 41 0
277 -2 -23 -41 0
-278 6 0
-278 27 0
-278 45 0
278 -6 -27 -45 0
-279 10 0
-279 31 0
-279 49 0
279 -10 -31 -49 0
-280 14 0
-280 35 0
-280 53 0
280 -14 -35 -53 0
-281 18 0
-281 39 0
-281 57 0
281 -18 -39 -57 0
-282 277 278 0
-282 -277 -278 0
282 -277 278 0
282 277 -278 0
-283 282 279 0
-283 -282 -279 0
283 -282 279 0
283 282 -279 0
-284 283 280 0
-284 -283 -280 0
284 -283 280 0
284 283 -280 0
-285 284 281 0
-285 -284 -281 0
285 -284 281 0
285 284 -281 0
285 0
-286 2 0
-286 23 0
-286 42 0
286 -2 -23 -42 0
-287 6 0
-287 27 0
-287 46 0
287 -6 -27 -46 0
-288 10 0
-288 31 0
-288 50 0
288 -10 -31 -50 0
-289 14 0
-289 35 0
-289 54 0
289 -14 -35 -54 0
-290 18 0
-290 39 0
-290 58 0
290 -18 -39 -58 0
-291 286 287 0
-291 -286 -287 0
291 -286 287 0
291 286 -287 0
-292 291 288 0
-292 -291 -288 0
292 -291 288 0
292 291 -288 0
-293 292 289 0
-293 -292 -289 0
293 -292 289 0
293 292 -289 0
-294 293 290 0
-294 -293 -290 0
294 -293 290 0
294 293 -290 0
-294 0
-295 2 0
-295 23 0
-295 43 0
295 -2 -23 -43 0
-296 6 0
-296 27 0
-296 47 0
296 -6 -27 -47 0
-297 10 0
-297 31 0
-297 51 0
297 -10 -31 -51 0
-298 14 0
-298 35 0
-298 55 0
298 -14 -35 -55 0
-299 18 0
-299 39 0
-299 59 0
299 -18 -39 -59 0
-300 295 296 0
-300 -295 -296 0
300 -295 296 0
300 295 -296 0
-301 300 297 0
-301 -300 -297 0
301 -300 297 0
301 300 -297 0
-302 301 298 0
-302 -301 -298 0
302 -301 298 0
302 301 -298 0
-303 302 299 0
-303 -302 -299 0
303 -302 299 0
303 302 -299 0
-303 0
-304 2 0
-304 23 0
-304 44 0
304 -2 -23 -44 0
-305 6 0
-305 27 0
-305 48 0
305 -6 -27 -48 0
-306 10 0
-306 31 0
-306 52 0
306 -10 -31 -52 0
-307 14 0
-307 35 0
-307 56 0
307 -14 -35 -56 0
-308 18 0
-308 39 0
-308 60 0
308 -18 -39 -60 0
-309 304 305 0
-309 -304 -305 0
309 -304 305 0
309 304 -305 0
-310 309 306 0
-310 -309 -306 0
310 -309 306 0
310 309 -306 0
-311 310 307 0
-311 -310 -307 0
311 -310 307 0
311 310 -307 0
-312 311 308 0
-312 -311 -308 0
312 -311 308 0
312 311 -308 0
-312 0
-313 2 0
-313 24 0
-313 41 0
313 -2 -24 -41 0
-314 6 0
-314 28 0
-314 45 0
314 -6 -28 -45 0
-315 10 0
-315 32 0
-315 49 0
315 -10 -32 -49 0
-316 14 0
-316 36 0
-316 53 0
316 -14 -36 -53 0
-317 18 0
-317 40 0
-317 57 0
317 -18 -40 -57 0
-318 313 314 0
-318 -313 -314 0
318 -313 314 0
318 313 -314 0
-319 318 315 0
-319 -318 -315 0
319 -318 315 0
319 318 -315 0
-320 319 316 0
-320 -319 -316 0
320 -319 316 0
320 319 -316 0
-321 320 317 0
-321 -320 -317 0
321 -320 317 0
321 320 -317 0
-321 0
-322 2 0
-322 24 0
-322 42 0
322 -2 -24 -42 0
-323 6 0
-323 28 0
-323 46 0
323 -6 -28 -46 0
-324 10 0
-324 32 0
-324 50 0
324 -10 -32 -50 0
-325 14 0
-325 36 0
-325 54 0
325 -14 -36 -54 0
-326 18 0
-326 40 0
-326 58 0
326 -18 -40 -58 0
-327 322 323 0
-327 -322 -323 0
327 -322 323 0
327 322 -323 0
-328 327 324 0
-328 -327 -324 0
328 -327 324 0
328 327 -324 0
-329 328 325 0
-329 -328 -325 0
329 -328 325 0
329 328 -325 0
-330 329 326 0
-330 -329 -326 0
330 -329 326 0
330 329 -326 0
330 0
-331 2 0
-331 24 0
-331 43 0
331 -2 -24 -43 0
-332 6 0
-332 28 0
-332 47 0
332 -6 -28 -47 0
-333 10 0
-333 32 0
-333 51 0
333 -10 -32 -51 0
-334 14 0
-334 36 0
-334 55 0
334 -14 -36 -55 0
-335 18 0
-335 40 0
-335 59 0
335 -18 -40 -59 0
-336 331 332 0
-336 -331 -332 0
336 -331 332 0
336 331 -332 0
-337 336 333 0
-337 -336 -333 0
337 -336 333 0
337 336 -333 0
-338 337 334 0
-338 -337 -334 0
338 -337 334 0
338 337 -334 0
-339 338 335 0
-339 -338 -335 0
339 -338 335 0
339 338 -335 0
-339 0
-340 2 0
-340 24 0
-340 44 0
340 -2 -24 -44 0
-341 6 0
-341 28 0
-341 48 0
341 -6 -28 -48 0
-342 10 0
-342 32 0
-342 52 0
342 -10 -32 -52 0
-343 14 0
-343 36 0
-343 56 0
343 -14 -36 -56 0
-344 18 0
-344 40 0
-344 60 0
344 -18 -40 -60 0
-345 340 341 0
-345 -340 -341 0
345 -340 341 0
345 340 -341 0
-346 345 342 0
-346 -345 -342 0
346 -345 342 0
346 345 -342 0
-347 346 343 0
-347 -346 -343 0
347 -346 343 0
347 346 -343 0
-348 347 344 0
-348 -347 -344 0
348 -347 344 0
348 347 -344 0
-348 0
-349 3 0
-349 21 0
-349 41 0
349 -3 -21 -41 0
-350 7 0
-350 25 0
-350 45 0
350 -7 -25 -45 0
-351 11 0
-351 29 0
-351 49 0
351 -11 -29 -49 0
-352 15 0
-352 33 0
-352 53 0
352 -15 -33 -53 0
-353 19 0
-353 37 0
-353 57 0
353 -19 -37 -57 0
-354 349 350 0
-354 -349 -350 0
354 -349 350 0
354 349 -350 0
-355 354 351 0
-355 -354 -351 0
355 -354 351 0
355 354 -351 0
-356 355 352 0
-356 -355 -352 0
356 -355 352 0
356 355 -352 0
-357 356 353 0
-357 -356 -353 0
357 -356 353 0
357 356 -353 0
-357 0
-358 3 0
-358 21 0
-358 42 0
358 -3 -21 -42 0
-359 7 0
-359 25 0
-359 46 0
359 -7 -25 -46 0
-360 11 0
-360 29 0
-360 50 0
360 -11 -29 -50 0
-361 15 0
-361 33 0
-361 54 0
361 -15 -33 -54 0
-362 19 0
-362 37 0
-362 58 0
362 -19 -37 -58 0
-363 358 359 0
-363 -358 -359 0
363 -358 359 0
363 358 -359 0
-364 363 360 0
-364 -363 -360 0
364 -363 360 0
364 363 -360 0
-365 364 361 0
-365 -364 -361 0
365 -364 361 0
365 364 -361 0
-366 365 362 0
-366 -365 -362 0
366 -365 362 0
366 365 -362 0
-366 0
-367 3 0
-367 21 0
-367 43 0
367 -3 -21 -43 0
-368 7 0
-368 25 0
-368 47 0
368 -7 -25 -47 0
-369 11 0
-369 29 0
-369 51 0
369 -11 -29 -51 0
-370 15 0
-370 33 0
-370 55 0
370 -15 -33 -55 0
-371 19 0
-371 37 0
-371 59 0
371 -19 -37 -59 0
-372 367 368 0
-372 -367 -368 0
372 -367 368 0
372 367 -368 0
-373 372 369 0
-373 -372 -369 0
373 -372 369 0
373 372 -369 0
-374 373 370 0
-374 -373 -370 0
374 -373 370 0
374 373 -370 0
-375 374 371 0
-375 -374 -371 0
375 -374 371 0
375 374 -371 0
375 0
-376 3 0
-376 21 0
-376 44 0
376 -3 -21 -44 0
-377 7 0
-377 25 0
-377 48 0
377 -7 -25 -48 0
-378 11 0
-378 29 0
-378 52 0
378 -11 -29 -52 0
-379 15 0
-379 33 0
-379 56 0
379 -15 -33 -56 0
-380 19 0
-380 37 0
-380 60 0
380 -19 -37 -60 0
-381 376 377 0
-381 -376 -377 0
381 -376 377 0
381 376 -377 0
-382 381 378 0
-382 -381 -378 0
382 -381 378 0
382 381 -378 0
-383 382 379 0
-383 -382 -379 0
383 -382 379 0
383 382 -379 0
-384 383 380 0
-384 -383 -380 0
384 -383 380 0
384 383 -380 0
-384 0
-385 3 0
-385 22 0
-385 41 0
385 -3 -22 -41 0
-386 7 0
-386 26 0
-386 45 0
386 -7 -26 -45 0
-387 11 0
-387 30 0
-387 49 0
387 -11 -30 -49 0
-388 15 0
-388 34 0
-388 53 0
388 -15 -34 -53 0
-389 19 0
-389 38 0
-389 57 0
389 -19 -38 -57 0
-390 385 386 0
-390 -385 -386 0
390 -385 386 0
390 385 -386 0
-391 390 387 0
-391 -390 -387 0
391 -390 387 0
391 390 -387 0
-392 391 388 0
-392 -391 -388 0
392 -391 388 0
392 391 -388 0
-393 392 389 0
-393 -392 -389 0
393 -392 389 0
393 392 -389 0
-393 0
-394 3 0
-394 22 0
-394 42 0
394 -3 -22 -42 0
-395 7 0
-395 26 0
-395 46 0
395 -7 -26 -46 0
-396 11 0
-396 30 0
-396 50 0
396 -11 -30 -50 0
-397 15 0
-397 34 0
-397 54 0
397 -15 -34 -54 0
-398 19 0
-398 38 0
-398 58 0
398 -19 -38 -58 0
-399 394 395 0
-399 -394 -395 0
399 -394 395 0
399 394 -395 0
-400 399 396 0
-400 -399 -396 0
400 -399 396 0
400 399 -396 0
-401 400 397 0
-401 -400 -397 0
401 -400 397 0
401 400 -397 0
-402 401 398 0
-402 -401 -398 0
402 -401 398 0
402 401 -398 0
-402 0
-403 3 0
-403 22 0
-403 43 0
403 -3 -22 -43 0
-404 7 0
-404 26 0
-404 47 0
404 -7 -26 -47 0
-405 11 0
-405 30 0
-405 51 0
405 -11 -30 -51 0
-406 15 0
-406 34 0
-406 55 0
406 -15 -34 -55 0
-407 19 0
-407 38 0
-407 59 0
407 -19 -38 -59 0
-408 403 404 0
-408 -403 -404 0
408 -403 404 0
408 403 -404 0
-409 408 405 0
-409 -408 -405 0
409 -408 405 0
409 408 -405 0
-410 409 406 0
-410 -409 -406 0
410 -409 406 0
410 409 -406 0
-411 410 407 0
-411 -410 -407 0
411 -410 407 0
411 410 -407 0
-411 0
-412 3 0
-412 22 0
-412 44 0
412 -3 -22 -44 0
-413 7 0
-413 26 0
-413 48 0
413 -7 -26 -48 0
-414 11 0
-414 30 0
-414 52 0
414 -11 -30 -52 0
-415 15 0
-415 34 0
-415 56 0
415 -15 -34 -56 0
-416 19 0
-416 38 0
-416 60 0
416 -19 -38 -60 0
-417 412 413 0
-417 -412 -413 0
417 -412 413 0
417 412 -413 0
-418 417 414 0
-418 -417 -414 0
418 -417 414 0
418 417 -414 0
-419 418 415 0
-419 -418 -415 0
419 -418 415 0
419 418 -415 0
-420 419 416 0
-420 -419 -416 0
420 -419 416 0
420 419 -416 0
420 0
-421 3 0
-421 23 0
-421 41 0
421 -3 -23 -41 0
-422 7 0
-422 27 0
-422 45 0
422 -7 -27 -45 0
-423 11 0
-423 31 0
-423 49 0
423 -11 -31 -49 0
-424 15 0
-424 35 0
-424 53 0
424 -15 -35 -53 0
-425 19 0
-425 39 0
-425 57 0
425 -19 -39 -57 0
-426 421 422 0
-426 -421 -422 0
426 -421 422 0
426 421 -422 0
-427 426 423 0
-427 -426 -423 0
427 -426 423 0
427 426 -423 0
-428 427 424 0
-428 -427 -424 0
428 -427 424 0
428 427 -424 0
-429 428 425 0
-429 -428 -425 0
429 -428 425 0
429 428 -425 0
-429 0
-430 3 0
-430 23 0
-430 42 0
430 -3 -23 -42 0
-431 7 0
-431 27 0
-431 46 0
431 -7 -27 -46 0
-432 11 0
-432 31 0
-432 50 0
432 -11 -31 -50 0
-433 15 0
-433 35 0
-433 54 0
433 -15 -35 -54 0
-434 19 0
-434 39 0
-434 58 0
434 -19 -39 -58 0
-435 430 431 0
-435 -430 -431 0
435 -430 431 0
435 430 -431 0
-436 435 432 0
-436 -435 -432 0
436 -435 432 0
436 435 -432 0
-437 436 433 0
-437 -436 -433 0
437 -436 433 0
437 436 -433 0
-438 437 434 0
-438 -437 -434 0
438 -437 434 0
438 437 -434 0
-438 0
-439 3 0
-439 23 0
-439 43 0
439 -3 -23 -43 0
-440 7 0
-440 27 0
-440 47 0
440 -7 -27 -47 0
-441 11 0
-441 31 0
-441 51 0
441 -11 -31 -51 0
-442 15 0
-442 35 0
-442 55 0
442 -15 -35 -55 0
-443 19 0
-443 39 0
-443 59 0
443 -19 -39 -59 0
-444 439 440 0
-444 -439 -440 0
444 -439 440 0
444 439 -440 0
-445 444 441 0
-445 -444 -441 0
445 -444 441 0
445 444 -441 0
-446 445 442 0
-446 -445 -442 0
446 -445 442 0
446 445 -442 0
-447 446 443 0
-447 -446 -443 0
447 -446 443 0
447 446 -443 0
-447 0
-448 3 0
-448 23 0
-448 44 0
448 -3 -23 -44 0
-449 7 0
-449 27 0
-449 48 0
449 -7 -27 -48 0
-450 11 0
-450 31 0
-450 52 0
450 -11 -31 -52 0
-451 15 0
-451 35 0
-451 56 0
451 -15 -35 -56 0
-452 19 0
-452 39 0
-452 60 0
452 -19 -39 -60 0
-453 448 449 0
-453 -448 -449 0
453 -448 449 0
453 448 -449 0
-454 453 450 0
-454 -453 -450 0
454 -453 450 0
454 453 -450 0
-455 454 451 0
-455 -454 -451 0
455 -454 451 0
455 454 -451 0
-456 455 452 0
-456 -455 -452 0
456 -455 452 0
456 455 -452 0
-456 0
-457 3 0
-457 24 0
-457 41 0
457 -3 -24 -41 0
-458 7 0
-458 28 0
-458 45 0
458 -7 -28 -45 0
-459 11 0
-459 32 0
-459 49 0
459 -11 -32 -49 0
-460 15 0
-460 36 0
-460 53 0
460 -15 -36 -53 0
-461 19 0
-461 40 0
-461 57 0
461 -19 -40 -57 0
-462 457 458 0
-462 -457 -458 0
462 -457 458 0
462 457 -458 0
-463 462 459 0
-463 -462 -459 0
463 -462 459 0
463 462 -459 0
-464 463 460 0
-464 -463 -460 0
464 -463 460 0
464 463 -460 0
-465 464 461 0
-465 -464 -461 0
465 -464 461 0
465 464 -461 0
-465 0
-466 3 0
-466 24 0
-466 42 0
466 -3 -24 -42 0
-467 7 0
-467 28 0
-467 46 0
467 -7 -28 -46 0
-468 11 0
-468 32 0
-468 50 0
468 -11 -32 -50 0
-469 15 0
-469 36 0
-469 54 0
469 -15 -36 -54 0
-470 19 0
-470 40 0
-470 58 0
470 -19 -40 -58 0
-471 466 467 0
-471 -466 -467 0
471 -466 467 0
471 466 -467 0
-472 471 468 0
-472 -471 -468 0
472 -471 468 0
472 471 -468 0
-473 472 469 0
-473 -472 -469 0
473 -472 469 0
473 472 -469 0
-474 473 470 0
-474 -473 -470 0
474 -473 470 0
474 473 -470 0
-474 0
-475 3 0
-475 24 0
-475 43 0
475 -3 -24 -43 0
-476 7 0
-476 28 0
-476 47 0
476 -7 -28 -47 0
-477 11 0
-477 32 0
-477 51 0
477 -11 -32 -51 0
-478 15 0
-478 36 0
-478 55 0
478 -15 -36 -55 0
-479 19 0
-479 40 0
-479 59 0
479 -19 -40 -59 0
-480 475 476 0
-480 -475 -476 0
480 -475 476 0
480 475 -476 0
-481 480 477 0
-481 -480 -477 0
481 -480 477 0
481 480 -477 0
-482 481 478 0
-482 -481 -478 0
482 -481 478 0
482 481 -478 0
-483 482 479 0
-483 -482 -479 0
483 -482 479 0
483 482 -479 0
-483 0
-484 3 0
-484 24 0
-484 44 0
484 -3 -24 -44 0
-485 7 0
-485 28 0
-485 48 0
485 -7 -28 -48 0
-486 11 0
-486 32 0
-486 52 0
486 -11 -32 -52 0
-487 15 0
-487 36 0
-487 56 0
487 -15 -36 -56 0
-488 19 0
-488 40 0
-488 60 0
488 -19 -40 -60 0
-489 484 485 0
-489 -484 -485 0
489 -484 485 0
489 484 -485 0
-490 489 486 0
-490 -489 -486 0
490 -489 486 0
490 489 -486 0
-491 490 487 0
-491 -490 -487 0
491 -490 487 0
491 490 -487 0
-492 491 488 0
-492 -491 -488 0
492 -491 488 0
492 491 -488 0
-492 0
-493 4 0
-493 21 0
-493 41 0
493 -4 -21 -41 0
-494 8 0
-494 25 0
-494 45 0
494 -8 -25 -45 0
-495 12 0
-495 29 0
-495 49 0
495 -12 -29 -49 0
-496 16 0
-496 33 0
-496 53 0
496 -16 -33 -53 0
-497 20 0
-497 37 0
-497 57 0
497 -20 -37 -57 0
-498 493 494 0
-498 -493 -494 0
498 -493 494 0
498 493 -494 0
-499 498 495 0
-499 -498 -495 0
499 -498 495 0
499 498 -495 0
-500 499 496 0
-500 -499 -496 0
500 -499 496 0
500 499 -496 0
-501 500 497 0
-501 -500 -497 0
501 -500 497 0
501 500 -497 0
-501 0
-502 4 0
-502 21 0
-502 42 0
502 -4 -21 -42 0
-503 8 0
-503 25 0
-503 46 0
503 -8 -25 -46 0
-504 12 0
-504 29 0
-504 50 0
504 -12 -29 -50 0
-505 16 0
-505 33 0
-505 54 0
505 -16 -33 -54 0
-506 20 0
-506 37 0
-506 58 0
506 -20 -37 -58 0
-507 502 503 0
-507 -502 -503 0
507 -502 503 0
507 502 -503 0
-508 507 504 0
-508 -507 -504 0
508 -507 504 0
508 507 -504 0
-509 508 505 0
-509 -508 -505 0
509 -508 505 0
509 508 -505 0
-510 509 506 0
-510 -509 -506 0
510 -509 506 0
510 509 -506 0
-510 0
-511 4 0
-511 21 0
-511 43 0
511 -4 -21 -43 0
-512 8 0
-512 25 0
-512 47 0
512 -8 -25 -47 0
-513 12 0
-513 29 0
-513 51 0
513 -12 -29 -51 0
-514 16 0
-514 33 0
-514 55 0
514 -16 -33 -55 0
-515 20 0
-515 37 0
-515 59 0
515 -20 -37 -59 0
-516 511 512 0
-516 -511 -512 0
516 -511 512 0
516 511 -512 0
-517 516 513 0
-517 -516 -513 0
517 -516 513 0
517 516 -513 0
-518 517 514 0
-518 -517 -514 0
518 -517 514 0
518 517 -514 0
-519 518 515 0
-519 -518 -515 0
519 -518 515 0
519 518 -515 0
-519 0
-520 4 0
-520 21 0
-520 44 0
520 -4 -21 -44 0
-521 8 0
-521 25 0
-521 48 0
521 -8 -25 -48 0
-522 12 0
-522 29 0
-522 52 0
522 -12 -29 -52 0
-523 16 0
-523 33 0
-523 56 0
523 -16 -33 -56 0
-524 20 0
-524 37 0
-524 60 0
524 -20 -37 -60 0
-525 520 521 0
-525 -520 -521 0
525 -520 521 0
525 520 -521 0
-526 525 522 0
-526 -525 -522 0
526 -525 522 0
526 525 -522 0
-527 526 523 0
-527 -526 -523 0
527 -526 523 0
527 526 -523 0
-528 527 524 0
-528 -527 -524 0
528 -527 524 0
528 527 -524 0
-528 0
-529 4 0
-529 22 0
-529 41 0
529 -4 -22 -41 0
-530 8 0
-530 26 0
-530 45 0
530 -8 -26 -45 0
-531 12 0
-531 30 0
-531 49 0
531 -12 -30 -49 0
-532 16 0
-532 34 0
-532 53 0
532 -16 -34 -53 0
-533 20 0
-533 38 0
-533 57 0
533 -20 -38 -57 0
-534 529 530 0
-534 -529 -530 0
534 -529 530 0
534 529 -530 0
-535 534 531 0
-535 -534 -531 0
535 -534 531 0
535 534 -531 0
-536 535 532 0
-536 -535 -532 0
536 -535 532 0
536 535 -532 0
-537 536 533 0
-537 -536 -533 0
537 -536 533 0
537 536 -533 0
-537 0
-538 4 0
-538 22 0
-538 42 0
538 -4 -22 -42 0
-539 8 0
-539 26 0
-539 46 0
539 -8 -26 -46 0
-540 12 0
-540 30 0
-540 50 0
540 -12 -30 -50 0
-541 16 0
-541 34 0
-541 54 0
541 -16 -34 -54 0
-542 20 0
-542 38 0
-542 58 0
542 -20 -38 -58 0
-543 538 539 0
-543 -538 -539 0
543 -538 539 0
543 538 -539 0
-544 543 540 0
-544 -543 -540 0
544 -543 540 0
544 543 -540 0
-545 544 541 0
-545 -544 -541 0
545 -544 541 0
545 544 -541 0
-546 545 542 0
-546 -545 -542 0
546 -545 542 0
546 545 -542 0
-546 0
-547 4 0
-547 22 0
-547 43 0
547 -4 -22 -43 0
-548 8 0
-548 26 0
-548 47 0
548 -8 -26 -47 0
-549 12 0
-549 30 0
-549 51 0
549 -12 -30 -51 0
-550 16 0
-550 34 0
-550 55 0
550 -16 -34 -55 0
-551 20 0
-551 38 0
-551 59 0
551 -20 -38 -59 0
-552 547 548 0
-552 -547 -548 0
552 -547 548 0
552 547 -548 0
-553 552 549 0
-553 -552 -549 0
553 -552 549 0
553 552 -549 0
-554 553 550 0
-554 -553 -550 0
554 -553 550 0
554 553 -550 0
-555 554 551 0
-555 -554 -551 0
555 -554 551 0
555 554 -551 0
-555 0
-556 4 0
-556 22 0
-556 44 0
556 -4 -22 -44 0
-557 8 0
-557 26 0
-557 48 0
557 -8 -26 -48 0
-558 12 0
-558 30 0
-558 52 0
558 -12 -30 -52 0
-559 16 0
-559 34 0
-559 56 0
559 -16 -34 -56 0
-560 20 0
-560 38 0
-560 60 0
560 -20 -38 -60 0
-561 556 557 0
-561 -556 -557 0
561 -556 557 0
561 556 -557 0
-562 561 558 0
-562 -561 -558 0
562 -561 558 0
562 561 -558 0
-563 562 559 0
-563 -562 -559 0
563 -562 559 0
563 562 -559 0
-564 563 560 0
-564 -563 -560 0
564 -563 560 0
564 563 -560 0
-564 0
-565 4 0
-565 23 0
-565 41 0
565 -4 -23 -41 0
-566 8 0
-566 27 0
-566 45 0
566 -8 -27 -45 0
-567 12 0
-567 31 0
-567 49 0
567 -12 -31 -49 0
-568 16 0
-568 35 0
-568 53 0
568 -16 -35 -53 0
-569 20 0
-569 39 0
-569 57 0
569 -20 -39 -57 0
-570 565 566 0
-570 -565 -566 0
570 -565 566 0
570 565 -566 0
-571 570 567 0
-571 -570 -567 0
571 -570 567 0
571 570 -567 0
-572 571 568 0
-572 -571 -568 0
572 -571 568 0
572 571 -568 0
-573 572 569 0
-573 -572 -569 0
573 -572 569 0
573 572 -569 0
-573 0
-574 4 0
-574 23 0
-574 42 0
574 -4 -23 -42 0
-575 8 0
-575 27 0
-575 46 0
575 -8 -27 -46 0
-576 12 0
-576 31 0
-576 50 0
576 -12 -31 -50 0
-577 16 0
-577 35 0
-577 54 0
577 -16 -35 -54 0
-578 20 0
-578 39 0
-578 58 0
578 -20 -39 -58 0
-579 574 575 0
-579 -574 -575 0
579 -574 575 0
579 574 -575 0
-580 579 576 0
-580 -579 -576 0
580 -579 576 0
580 579 -576 0
-581 580 577 0
-581 -580 -577 0
581 -580 577 0
581 580 -577 0
-582 581 578 0
-582 -581 -578 0
582 -581 578 0
582 581 -578 0
-582 0
-583 4 0
-583 23 0
-583 43 0
583 -4 -23 -43 0
-584 8 0
-584 27 0
-584 47 0
584 -8 -27 -47 0
-585 12 0
-585 31 0
-585 51 0
585 -12 -31 -51 0
-586 16 0
-586 35 0
-586 55 0
586 -16 -35 -55 0
-587 20 0
-587 39 0
-587 59 0
587 -20 -39 -59 0
-588 583 584 0
-588 -583 -584 0
588 -583 584 0
588 583 -584 0
-589 588 585 0
-589 -588 -585 0
589 -588 585 0
589 588 -585 0
-590 589 586 0
-590 -589 -586 0
590 -589 586 0
590 589 -586 0
-591 590 587 0
-591 -590 -587 0
591 -590 587 0
591 590 -587 0
591 0
-592 4 0
-592 23 0
-592 44 0
592 -4 -23 -44 0
-593 8 0
-593 27 0
-593 48 0
593 -8 -27 -48 0
-594 12 0
-594 31 0
-594 52 0
594 -12 -31 -52 0
-595 16 0
-595 35 0
-595 56 0
595 -16 -35 -56 0
-596 20 0
-596 39 0
-596 60 0
596 -20 -39 -60 0
-597 592 593 0
-597 -592 -593 0
597 -592 593 0
597 592 -593 0
-598 597 594 0
-598 -597 -594 0
598 -597 594 0
598 597 -594 0
-599 598 595 0
-599 -598 -595 0
599 -598 595 0
599 598 -595 0
-600 599 596 0
-600 -599 -596 0
600 -599 596 0
600 599 -596 0
-600 0
-601 4 0
-601 24 0
-601 41 0
601 -4 -24 -41 0
-602 8 0
-602 28 0
-602 45 0
602 -8 -28 -45 0
-603 12 0
-603 32 0
-603 49 0
603 -12 -32 -49 0
-604 16 0
-604 36 0
-604 53 0
604 -16 -36 -53 0
-605 20 0
-605 40 0
-605 57 0
605 -20 -40 -57 0
-606 601 602 0
-606 -601 -602 0
606 -601 602 0
606 601 -602 0
-607 606 603 0
-607 -606 -603 0
607 -606 603 0
607 606 -603 0
-608 607 604 0
-608 -607 -604 0
608 -607 604 0
608 607 -604 0
-609 608 605 0
-609 -608 -605 0
609 -608 605 0
609 608 -605 0
-609 0
-610 4 0
-610 24 0
-610 42 0
610 -4 -24 -42 0
-611 8 0
-611 28 0
-611 46 0
611 -8 -28 -46 0
-612 12 0
-612 32 0
-612 50 0
612 -12 -32 -50 0
-613 16 0
-613 36 0
-613 54 0
613 -16 -36 -54 0
-614 20 0
-614 40 0
-614 58 0
614 -20 -40 -58 0
-615 610 611 0
-615 -610 -611 0
615 -610 611 0
615 610 -611 0
-616 615 612 0
-616 -615 -612 0
616 -615 612 0
616 615 -612 0
-617 616 613 0
-617 -616 -613 0
617 -616 613 0
617 616 -613 0
-618 617 614 0
-618 -617 -614 0
618 -617 614 0
618 617 -614 0
-618 0
-619 4 0
-619 24 0
-619 43 0
619 -4 -24 -43 0
-620 8 0
-620 28 0
-620 47 0
620 -8 -28 -47 0
-621 12 0
-621 32 0
-621 51 0
621 -12 -32 -51 0
-622 16 0
-622 36 0
-622 55 0
622 -16 -36 -55 0
-623 20 0
-623 40 0
-623 59 0
623 -20 -40 -59 0
-624 619 620 0
-624 -619 -620 0
624 -619 620 0
624 619 -620 0
-625 624 621 0
-625 -624 -621 0
625 -624 621 0
625 624 -621 0
-626 625 622 0
-626 -625 -622 0
626 -625 622 0
626 625 -622 0
-627 626 623 0
-627 -626 -623 0
627 -626 623 0
627 626 -623 0
-627 0
-628 4 0
-628 24 0
-628 44 0
628 -4 -24 -44 0
-629 8 0
-629 28 0
-629 48 0
629 -8 -28 -48 0
-630 12 0
-630 32 0
-630 52 0
630 -12 -32 -52 0
-631 16 0
-631 36 0
-631 56 0
631 -16 -36 -56 0
-632 20 0
-632 40 0
-632 60 0
632 -20 -40 -60 0
-633 628 629 0
-633 -628 -629 0
633 -628 629 0
633 628 -629 0
-634 633 630 0
-634 -633 -630 0
634 -633 630 0
634 633 -630 0
-635 634 631 0
-635 -634 -631 0
635 -634 631 0
635 634 -631 0
-636 635 632 0
-636 -635 -632 0
636 -635 632 0
636 635 -632 0
636 0
