p cnf 776 2880
-73 1 0
-73 25 0
-73 49 0
73 -1 -25 -49 0
-74 5 0
-74 29 0
-74 53 0
74 -5 -29 -53 0
-75 9 0
-75 33 0
-75 57 0
75 -9 -33 -57 0
-76 13 0
-76 37 0
-76 61 0
76 -13 -37 -61 0
-77 17 0
-77 41 0
-77 65 0
77 -17 -41 -65 0
-78 21 0
-78 45 0
-78 69 0
78 -21 -45 -69 0
-79 73 74 0
-79 -73 -74 0
79 -73 74 0
79 73 -74 0
-80 79 75 0
-80 -79 -75 0
80 -79 75 0
80 79 -75 0
-81 80 76 0
-81 -80 -76 0
81 -80 76 0
81 80 -76 0
-82 81 77 0
-82 -81 -77 0
82 -81 77 0
82 81 -77 0
-83 82 78 0
-83 -82 -78 0
83 -82 78 0
83 82 -78 0
83 0
-84 1 0
-84 25 0
-84 50 0
84 -1 -25 -50 0
-85 5 0
-85 29 0
-85 54 0
85 -5 -29 -54 0
-86 9 0
-86 33 0
-86 58 0
86 -9 -33 -58 0
-87 13 0
-87 37 0
-87 62 0
87 -13 -37 -62 0
-88 17 0
-88 41 0
-88 66 0
88 -17 -41 -66 0
-89 21 0
-89 45 0
-89 70 0
89 -21 -45 -70 0
-90 84 85 0
-90 -84 -85 0
90 -84 85 0
90 84 -85 0
-91 90 86 0
-91 -90 -86 0
91 -90 86 0
91 90 -86 0
-92 91 87 0
-92 -91 -87 0
92 -91 87 0
92 91 -87 0
-93 92 88 0
-93 -92 -88 0
93 -92 88 0
93 92 -88 0
-94 93 89 0
-94 -93 -89 0
94 -93 89 0
94 93 -89 0
-94 0
-95 1 0
-95 25 0
-95 51 0
95 -1 -25 -51 0
-96 5 0
-96 29 0
-96 55 0
96 -5 -29 -55 0
-97 9 0
-97 33 0
-97 59 0
97 -9 -33 -59 0
-98 13 0
-98 37 0
-98 63 0
98 -13 -37 -63 0
-99 17 0
-99 41 0
-99 67 0
99 -17 -41 -67 0
-100 21 0
-100 45 0
-100 71 0
100 -21 -45 -71 0
-101 95 96 0
-101 -95 -96 0
101 -95 96 0
101 95 -96 0
-102 101 97 0
-102 -101 -97 0
102 -101 97 0
102 101 -97 0
-103 102 98 0
-103 -102 -98 0
103 -102 98 0
103 102 -98 0
-104 103 99 0
-104 -103 -99 0
104 -103 99 0
104 103 -99 0
-105 104 100 0
-105 -104 -100 0
105 -104 100 0
105 104 -100 0
-105 0
-106 1 0
-106 25 0
-106 52 0
106 -1 -25 -52 0
-107 5 0
-107 29 0
-107 56 0
107 -5 -29 -56 0
-108 9 0
-108 33 0
-108 60 0
108 -9 -33 -60 0
-109 13 0
-109 37 0
-109 64 0
109 -13 -37 -64 0
-110 17 0
-110 41 0
-110 68 0
110 -17 -41 -68 0
-111 21 0
-111 45 0
-111 72 0
111 -21 -45 -72 0
-112 106 107 0
-112 -106 -107 0
112 -106 107 0
112 106 -107 0
-113 112 108 0
-113 -112 -108 0
113 -112 108 0
113 112 -108 0
-114 113 109 0
-114 -113 -109 0
114 -113 109 0
114 113 -109 0
-115 114 110 0
-115 -114 -110 0
115 -114 110 0
115 114 -110 0
-116 115 111 0
-116 -115 -111 0
116 -115 111 0
116 115 -111 0
-116 0
-117 1 0
-117 26 0
-117 49 0
117 -1 -26 -49 0
-118 5 0
-118 30 0
-118 53 0
118 -5 -30 -53 0
-119 9 0
-119 34 0
-119 57 0
119 -9 -34 -57 0
-120 13 0
-120 38 0
-120 61 0
120 -13 -38 -61 0
-121 17 0
-121 42 0
-121 65 0
121 -17 -42 -65 0
-122 21 0
-122 46 0
-122 69 0
122 -21 -46 -69 0
-123 117 118 0
-123 -117 -118 0
123 -117 118 0
123 117 -118 0
-124 123 119 0
-124 -123 -119 0
124 -123 119 0
124 123 -119 0
-125 124 120 0
-125 -124 -120 0
125 -124 120 0
125 124 -120 0
-126 125 121 0
-126 -125 -121 0
126 -125 121 0
126 125 -121 0
-127 126 122 0
-127 -126 -122 0
127 -126 122 0
127 126 -122 0
-127 0
-128 1 0
-128 26 0
-128 50 0
128 -1 -26 -50 0
-129 5 0
-129 30 0
-129 54 0
129 -5 -30 -54 0
-130 9 0
-130 34 0
-130 58 0
130 -9 -34 -58 0
-131 13 0
-131 38 0
-131 62 0
131 -13 -38 -62 0
-132 17 0
-132 42 0
-132 66 0
132 -17 -42 -66 0
-133 21 0
-133 46 0
-133 70 0
133 -21 -46 -70 0
-134 128 129 0
-134 -128 -129 0
134 -128 129 0
134 128 -129 0
-135 134 130 0
-135 -134 -130 0
135 -134 130 0
135 134 -130 0
-136 135 131 0
-136 -135 -131 0
136 -135 131 0
136 135 -131 0
-137 136 132 0
-137 -136 -132 0
137 -136 132 0
137 136 -132 0
-138 137 133 0
-138 -137 -133 0
138 -137 133 0
138 137 -133 0
138 0
-139 1 0
-139 26 0
-139 51 0
139 -1 -26 -51 0
-140 5 0
-140 30 0
-140 55 0
140 -5 -30 -55 0
-141 9 0
-141 34 0
-141 59 0
141 -9 -34 -59 0
-142 13 0
-142 38 0
-142 63 0
142 -13 -38 -63 0
-143 17 0
-143 42 0
-143 67 0
143 -17 -42 -67 0
-144 21 0
-144 46 0
-144 71 0
144 -21 -46 -71 0
-145 139 140 0
-145 -139 -140 0
145 -139 140 0
145 139 -140 0
-146 145 141 0
-146 -145 -141 0
146 -145 141 0
146 145 -141 0
-147 146 142 0
-147 -146 -142 0
147 -146 142 0
147 146 -142 0
-148 147 143 0
-148 -147 -143 0
148 -147 143 0
148 147 -143 0
-149 148 144 0
-149 -148 -144 0
149 -148 144 0
149 148 -144 0
-149 0
-150 1 0
-150 26 0
-150 52 0
150 -1 -26 -52 0
-151 5 0
-151 30 0
-151 56 0
151 -5 -30 -56 0
-152 9 0
-152 34 0
-152 60 0
152 -9 -34 -60 0
-153 13 0
-153 38 0
-153 64 0
153 -13 -38 -64 0
-154 17 0
-154 42 0
-154 68 0
154 -17 -42 -68 0
-155 21 0
-155 46 0
-155 72 0
155 -21 -46 -72 0
-156 150 151 0
-156 -150 -151 0
156 -150 151 0
156 150 -151 0
-157 156 152 0
-157 -156 -152 0
157 -156 152 0
157 156 -152 0
-158 157 153 0
-158 -157 -153 0
158 -157 153 0
158 157 -153 0
-159 158 154 0
-159 -158 -154 0
159 -158 154 0
159 158 -154 0
-160 159 155 0
-160 -159 -155 0
160 -159 155 0
160 159 -155 0
-160 0
-161 1 0
-161 27 0
-161 49 0
161 -1 -27 -49 0
-162 5 0
-162 31 0
-162 53 0
162 -5 -31 -53 0
-163 9 0
-163 35 0
-163 57 0
163 -9 -35 -57 0
-164 13 0
-164 39 0
-164 61 0
164 -13 -39 -61 0
-165 17 0
-165 43 0
-165 65 0
165 -17 -43 -65 0
-166 21 0
-166 47 0
-166 69 0
166 -21 -47 -69 0
-167 161 162 0
-167 -161 -162 0
167 -161 162 0
167 161 -162 0
-168 167 163 0
-168 -167 -163 0
168 -167 163 0
168 167 -163 0
-169 168 164 0
-169 -168 -164 0
169 -168 164 0
169 168 -164 0
-170 169 165 0
-170 -169 -165 0
170 -169 165 0
170 169 -165 0
-171 170 166 0
-171 -170 -166 0
171 -170 166 0
171 170 -166 0
-171 0
-172 1 0
-172 27 0
-172 50 0
172 -1 -27 -50 0
-173 5 0
-173 31 0
-173 54 0
173 -5 -31 -54 0
-174 9 0
-174 35 0
-174 58 0
174 -9 -35 -58 0
-175 13 0
-175 39 0
-175 62 0
175 -13 -39 -62 0
-176 17 0
-176 43 0
-176 66 0
176 -17 -43 -66 0
-177 21 0
-177 47 0
-177 70 0
177 -21 -47 -70 0
-178 172 173 0
-178 -172 -173 0
178 -172 173 0
178 172 -173 0
-179 178 174 0
-179 -178 -174 0
179 -178 174 0
179 178 -174 0
-180 179 175 0
-180 -179 -175 0
180 -179 175 0
180 179 -175 0
-181 180 176 0
-181 -180 -176 0
181 -180 176 0
181 180 -176 0
-182 181 177 0
-182 -181 -177 0
182 -181 177 0
182 181 -177 0
-182 0
-183 1 0
-183 27 0
-183 51 0
183 -1 -27 -51 0
-184 5 0
-184 31 0
-184 55 0
184 -5 -31 -55 0
-185 9 0
-185 35 0
-185 59 0
185 -9 -35 -59 0
-186 13 0
-186 39 0
-186 63 0
186 -13 -39 -63 0
-187 17 0
-187 43 0
-187 67 0
187 -17 -43 -67 0
-188 21 0
-188 47 0
-188 71 0
188 -21 -47 -71 0
-189 183 184 0
-189 -183 -184 0
189 -183 184 0
189 183 -184 0
-190 189 185 0
-190 -189 -185 0
190 -189 185 0
190 189 -185 0
-191 190 186 0
-191 -190 -186 0
191 -190 186 0
191 190 -186 0
-192 191 187 0
-192 -191 -187 0
192 -191 187 0
192 191 -187 0
-193 192 188 0
-193 -192 -188 0
193 -192 188 0
193 192 -188 0
-193 0
-194 1 0
-194 27 0
-194 52 0
194 -1 -27 -52 0
-195 5 0
-195 31 0
-195 56 0
195 -5 -31 -56 0
-196 9 0
-196 35 0
-196 60 0
196 -9 -35 -60 0
-197 13 0
-197 39 0
-197 64 0
197 -13 -39 -64 0
-198 17 0
-198 43 0
-198 68 0
198 -17 -43 -68 0
-199 21 0
-199 47 0
-199 72 0
199 -21 -47 -72 0
-200 194 195 0
-200 -194 -195 0
200 -194 195 0
200 194 -195 0
-201 200 196 0
-201 -200 -196 0
201 -200 196 0
201 200 -196 0
-202 201 197 0
-202 -201 -197 0
202 -201 197 0
202 201 -197 0
-203 202 198 0
-203 -202 -198 0
203 -202 198 0
203 202 -198 0
-204 203 199 0
-204 -203 -199 0
204 -203 199 0
204 203 -199 0
-204 0
-205 1 0
-205 28 0
-205 49 0
205 -1 -28 -49 0
-206 5 0
-206 32 0
-206 53 0
206 -5 -32 -53 0
-207 9 0
-207 36 0
-207 57 0
207 -9 -36 -57 0
-208 13 0
-208 40 0
-208 61 0
208 -13 -40 -61 0
-209 17 0
-209 44 0
-209 65 0
209 -17 -44 -65 0
-210 21 0
-210 48 0
-210 69 0
210 -21 -48 -69 0
-211 205 206 0
-211 -205 -206 0
211 -205 206 0
211 205 -206 0
-212 211 207 0
-212 -211 -207 0
212 -211 207 0
212 211 -207 0
-213 212 208 0
-213 -212 -208 0
213 -212 208 0
213 212 -208 0
-214 213 209 0
-214 -213 -209 0
214 -213 209 0
214 213 -209 0
-215 214 210 0
-215 -214 -210 0
215 -214 210 0
215 214 -210 0
-215 0
-216 1 0
-216 28 0
-216 50 0
216 -1 -28 -50 0
-217 5 0
-217 32 0
-217 54 0
217 -5 -32 -54 0
-218 9 0
-218 36 0
-218 58 0
218 -9 -36 -58 0
-219 13 0
-219 40 0
-219 62 0
219 -13 -40 -62 0
-220 17 0
-220 44 0
-220 66 0
220 -17 -44 -66 0
-221 21 0
-221 48 0
-221 70 0
221 -21 -48 -70 0
-222 216 217 0
-222 -216 -217 0
222 -216 217 0
222 216 -217 0
-223 222 218 0
-223 -222 -218 0
223 -222 218 0
223 222 -218 0
-224 223 219 0
-224 -223 -219 0
224 -223 219 0
224 223 -219 0
-225 224 220 0
-225 -224 -220 0
225 -224 220 0
225 224 -220 0
-226 225 221 0
-226 -225 -221 0
226 -225 221 0
226 225 -221 0
-226 0
-227 1 0
-227 28 0
-227 51 0
227 -1 -28 -51 0
-228 5 0
-228 32 0
-228 55 0
228 -5 -32 -55 0
-229 9 0
-229 36 0
-229 59 0
229 -9 -36 -59 0
-230 13 0
-230 40 0
-230 63 0
230 -13 -40 -63 0
-231 17 0
-231 44 0
-231 67 0
231 -17 -44 -67 0
-232 21 0
-232 48 0
-232 71 0
232 -21 -48 -71 0
-233 227 228 0
-233 -227 -228 0
233 -227 228 0
233 227 -228 0
-234 233 229 0
-234 -233 -229 0
234 -233 229 0
234 233 -229 0
-235 234 230 0
-235 -234 -230 0
235 -234 230 0
235 234 -230 0
-236 235 231 0
-236 -235 -231 0
236 -235 231 0
236 235 -231 0
-237 236 232 0
-237 -236 -232 0
237 -236 232 0
237 236 -232 0
-237 0
-238 1 0
-238 28 0
-238 52 0
238 -1 -28 -52 0
-239 5 0
-239 32 0
-239 56 0
239 -5 -32 -56 0
-240 9 0
-240 36 0
-240 60 0
240 -9 -36 -60 0
-241 13 0
-241 40 0
-241 64 0
241 -13 -40 -64 0
-242 17 0
-242 44 0
-242 68 0
242 -17 -44 -68 0
-243 21 0
-243 48 0
-243 72 0
243 -21 -48 -72 0
-244 238 239 0
-244 -238 -239 0
244 -238 239 0
244 238 -239 0
-245 244 240 0
-245 -244 -240 0
245 -244 240 0
245 244 -240 0
-246 245 241 0
-246 -245 -241 0
246 -245 241 0
246 245 -241 0
-247 246 242 0
-247 -246 -242 0
247 -246 242 0
247 246 -242 0
-248 247 243 0
-248 -247 -243 0
248 -247 243 0
248 247 -243 0
-248 0
-249 2 0
-249 25 0
-249 49 0
249 -2 -25 -49 0
-250 6 0
-250 29 0
-250 53 0
250 -6 -29 -53 0
-251 10 0
-251 33 0
-251 57 0
251 -10 -33 -57 0
-252 14 0
-252 37 0
-252 61 0
252 -14 -37 -61 0
-253 18 0
-253 41 0
-253 65 0
253 -18 -41 -65 0
-254 22 0
-254 45 0
-254 69 0
254 -22 -45 -69 0
-255 249 250 0
-255 -249 -250 0
255 -249 250 0
255 249 -250 0
-256 255 251 0
-256 -255 -251 0
256 -255 251 0
256 255 -251 0
-257 256 252 0
-257 -256 -252 0
257 -256 252 0
257 256 -252 0
-258 257 253 0
-258 -257 -253 0
258 -257 253 0
258 257 -253 0
-259 258 254 0
-259 -258 -254 0
259 -258 254 0
259 258 -254 0
-259 0
-260 2 0
-260 25 0
-260 50 0
260 -2 -25 -50 0
-261 6 0
-261 29 0
-261 54 0
261 -6 -29 -54 0
-262 10 0
-262 33 0
-262 58 0
262 -10 -33 -58 0
-263 14 0
-263 37 0
-263 62 0
263 -14 -37 -62 0
-264 18 0
-264 41 0
-264 66 0
264 -18 -41 -66 0
-265 22 0
-265 45 0
-265 70 0
265 -22 -45 -70 0
-266 260 261 0
-266 -260 -261 0
266 -260 261 0
266 260 -261 0
-267 266 262 0
-267 -266 -262 0
267 -266 262 0
267 266 -262 0
-268 267 263 0
-268 -267 -263 0
268 -267 263 0
268 267 -263 0
-269 268 264 0
-269 -268 -264 0
269 -268 264 0
269 268 -264 0
-270 269 265 0
-270 -269 -265 0
270 -269 265 0
270 269 -265 0
-270 0
-271 2 0
-271 25 0
-271 51 0
271 -2 -25 -51 0
-272 6 0
-272 29 0
-272 55 0
272 -6 -29 -55 0
-273 10 0
-273 33 0
-273 59 0
273 -10 -33 -59 0
-274 14 0
-274 37 0
-274 63 0
274 -14 -37 -63 0
-275 18 0
-275 41 0
-275 67 0
275 -18 -41 -67 0
-276 22 0
-276 45 0
-276 71 0
276 -22 -45 -71 0
-277 271 272 0
-277 -271 -272 0
277 -271 272 0
277 271 -272 0
-278 277 273 0
-278 -277 -273 0
278 -277 273 0
278 277 -273 0
-279 278 274 0
-279 -278 -274 0
279 -278 274 0
279 278 -274 0
-280 279 275 0
-280 -279 -275 0
280 -279 275 0
280 279 -275 0
-281 280 276 0
-281 -280 -276 0
281 -280 276 0
281 280 -276 0
-281 0
-282 2 0
-282 25 0
-282 52 0
282 -2 -25 -52 0
-283 6 0
-283 29 0
-283 56 0
283 -6 -29 -56 0
-284 10 0
-284 33 0
-284 60 0
284 -10 -33 -60 0
-285 14 0
-285 37 0
-285 64 0
285 -14 -37 -64 0
-286 18 0
-286 41 0
-286 68 0
286 -18 -41 -68 0
-287 22 0
-287 45 0
-287 72 0
287 -22 -45 -72 0
-288 282 283 0
-288 -282 -283 0
288 -282 283 0
288 282 -283 0
-289 288 284 0
-289 -288 -284 0
289 -288 284 0
289 288 -284 0
-290 289 285 0
-290 -289 -285 0
290 -289 285 0
290 289 -285 0
-291 290 286 0
-291 -290 -286 0
291 -290 286 0
291 290 -286 0
-292 291 287 0
-292 -291 -287 0
292 -291 287 0
292 291 -287 0
-292 0
-293 2 0
-293 26 0
-293 49 0
293 -2 -26 -49 0
-294 6 0
-294 30 0
-294 53 0
294 -6 -30 -53 0
-295 10 0
-295 34 0
-295 57 0
295 -10 -34 -57 0
-296 14 0
-296 38 0
-296 61 0
296 -14 -38 -61 0
-297 18 0
-297 42 0
-297 65 0
297 -18 -42 -65 0
-298 22 0
-298 46 0
-298 69 0
298 -22 -46 -69 0
-299 293 294 0
-299 -293 -294 0
299 -293 294 0
299 293 -294 0
-300 299 295 0
-300 -299 -295 0
300 -299 295 0
300 299 -295 0
-301 300 296 0
-301 -300 -296 0
301 -300 296 0
301 300 -296 0
-302 301 297 0
-302 -301 -297 0
302 -301 297 0
302 301 -297 0
-303 302 298 0
-303 -302 -298 0
303 -302 298 0
303 302 -298 0
-303 0
-304 2 0
-304 26 0
-304 50 0
304 -2 -26 -50 0
-305 6 0
-305 30 0
-305 54 0
305 -6 -30 -54 0
-306 10 0
-306 34 0
-306 58 0
306 -10 -34 -58 0
-307 14 0
-307 38 0
-307 62 0
307 -14 -38 -62 0
-308 18 0
-308 42 0
-308 66 0
308 -18 -42 -66 0
-309 22 0
-309 46 0
-309 70 0
309 -22 -46 -70 0
-310 304 305 0
-310 -304 -305 0
310 -304 305 0
310 304 -305 0
-311 310 306 0
-311 -310 -306 0
311 -310 306 0
311 310 -306 0
-312 311 307 0
-312 -311 -307 0
312 -311 307 0
312 311 -307 0
-313 312 308 0
-313 -312 -308 0
313 -312 308 0
313 312 -308 0
-314 313 309 0
-314 -313 -309 0
314 -313 309 0
314 313 -309 0
-314 0
-315 2 0
-315 26 0
-315 51 0
315 -2 -26 -51 0
-316 6 0
-316 30 0
-316 55 0
316 -6 -30 -55 0
-317 10 0
-317 34 0
-317 59 0
317 -10 -34 -59 0
-318 14 0
-318 38 0
-318 63 0
318 -14 -38 -63 0
-319 18 0
-319 42 0
-319 67 0
319 -18 -42 -67 0
-320 22 0
-320 46 0
-320 71 0
320 -22 -46 -71 0
-321 315 316 0
-321 -315 -316 0
321 -315 316 0
321 315 -316 0
-322 321 317 0
-322 -321 -317 0
322 -321 317 0
322 321 -317 0
-323 322 318 0
-323 -322 -318 0
323 -322 318 0
323 322 -318 0
-324 323 319 0
-324 -323 -319 0
324 -323 319 0
324 323 -319 0
-325 324 320 0
-325 -324 -320 0
325 -324 320 0
325 324 -320 0
-325 0
-326 2 0
-326 26 0
-326 52 0
326 -2 -26 -52 0
-327 6 0
-327 30 0
-327 56 0
327 -6 -30 -56 0
-328 10 0
-328 34 0
-328 60 0
328 -10 -34 -60 0
-329 14 0
-329 38 0
-329 64 0
329 -14 -38 -64 0
-330 18 0
-330 42 0
-330 68 0
330 -18 -42 -68 0
-331 22 0
-331 46 0
-331 72 0
331 -22 -46 -72 0
-332 326 327 0
-332 -326 -327 0
332 -326 327 0
332 326 -327 0
-333 332 328 0
-333 -332 -328 0
333 -332 328 0
333 332 -328 0
-334 333 329 0
-334 -333 -329 0
334 -333 329 0
334 333 -329 0
-335 334 330 0
-335 -334 -330 0
335 -334 330 0
335 334 -330 0
-336 335 331 0
-336 -335 -331 0
336 -335 331 0
336 335 -331 0
-336 0
-337 2 0
-337 27 0
-337 49 0
337 -2 -27 -49 0
-338 6 0
-338 31 0
-338 53 0
338 -6 -31 -53 0
-339 10 0
-339 35 0
-339 57 0
339 -10 -35 -57 0
-340 14 0
-340 39 0
-340 61 0
340 -14 -39 -61 0
-341 18 0
-341 43 0
-341 65 0
341 -18 -43 -65 0
-342 22 0
-342 47 0
-342 69 0
342 -22 -47 -69 0
-343 337 338 0
-343 -337 -338 0
343 -337 338 0
343 337 -338 0
-344 343 339 0
-344 -343 -339 0
344 -343 339 0
344 343 -339 0
-345 344 340 0
-345 -344 -340 0
345 -344 340 0
345 344 -340 0
-346 345 341 0
-346 -345 -341 0
346 -345 341 0
346 345 -341 0
-347 346 342 0
-347 -346 -342 0
347 -346 342 0
347 346 -342 0
347 0
-348 2 0
-348 27 0
-348 50 0
348 -2 -27 -50 0
-349 6 0
-349 31 0
-349 54 0
349 -6 -31 -54 0
-350 10 0
-350 35 0
-350 58 0
350 -10 -35 -58 0
-351 14 0
-351 39 0
-351 62 0
351 -14 -39 -62 0
-352 18 0
-352 43 0
-352 66 0
352 -18 -43 -66 0
-353 22 0
-353 47 0
-353 70 0
353 -22 -47 -70 0
-354 348 349 0
-354 -348 -349 0
354 -348 349 0
354 348 -349 0
-355 354 350 0
-355 -354 -350 0
355 -354 350 0
355 354 -350 0
-356 355 351 0
-356 -355 -351 0
356 -355 351 0
356 355 -351 0
-357 356 352 0
-357 -356 -352 0
357 -356 352 0
357 356 -352 0
-358 357 353 0
-358 -357 -353 0
358 -357 353 0
358 357 -353 0
-358 0
-359 2 0
-359 27 0
-359 51 0
359 -2 -27 -51 0
-360 6 0
-360 31 0
-360 55 0
360 -6 -31 -55 0
-361 10 0
-361 35 0
-361 59 0
361 -10 -35 -59 0
-362 14 0
-362 39 0
-362 63 0
362 -14 -39 -63 0
-363 18 0
-363 43 0
-363 67 0
363 -18 -43 -67 0
-364 22 0
-364 47 0
-364 71 0
364 -22 -47 -71 0
-365 359 360 0
-365 -359 -360 0
365 -359 360 0
365 359 -360 0
-366 365 361 0
-366 -365 -361 0
366 -365 361 0
366 365 -361 0
-367 366 362 0
-367 -366 -362 0
367 -366 362 0
367 366 -362 0
-368 367 363 0
-368 -367 -363 0
368 -367 363 0
368 367 -363 0
-369 368 364 0
-369 -368 -364 0
369 -368 364 0
369 368 -364 0
-369 0
-370 2 0
-370 27 0
-370 52 0
370 -2 -27 -52 0
-371 6 0
-371 31 0
-371 56 0
371 -6 -31 -56 0
-372 10 0
-372 35 0
-372 60 0
372 -10 -35 -60 0
-373 14 0
-373 39 0
-373 64 0
373 -14 -39 -64 0
-374 18 0
-374 43 0
-374 68 0
374 -18 -43 -68 0
-375 22 0
-375 47 0
-375 72 0
375 -22 -47 -72 0
-376 370 371 0
-376 -370 -371 0
376 -370 371 0
376 370 -371 0
-377 376 372 0
-377 -376 -372 0
377 -376 372 0
377 376 -372 0
-378 377 373 0
-378 -377 -373 0
378 -377 373 0
378 377 -373 0
-379 378 374 0
-379 -378 -374 0
379 -378 374 0
379 378 -374 0
-380 379 375 0
-380 -379 -375 0
380 -379 375 0
380 379 -375 0
-380 0
-381 2 0
-381 28 0
-381 49 0
381 -2 -28 -49 0
-382 6 0
-382 32 0
-382 53 0
382 -6 -32 -53 0
-383 10 0
-383 36 0
-383 57 0
383 -10 -36 -57 0
-384 14 0
-384 40 0
-384 61 0
384 -14 -40 -61 0
-385 18 0
-385 44 0
-385 65 0
385 -18 -44 -65 0
-386 22 0
-386 48 0
-386 69 0
386 -22 -48 -69 0
-387 381 382 0
-387 -381 -382 0
387 -381 382 0
387 381 -382 0
-388 387 383 0
-388 -387 -383 0
388 -387 383 0
388 387 -383 0
-389 388 384 0
-389 -388 -384 0
389 -388 384 0
389 388 -384 0
-390 389 385 0
-390 -389 -385 0
390 -389 385 0
390 389 -385 0
-391 390 386 0
-391 -390 -386 0
391 -390 386 0
391 390 -386 0
-391 0
-392 2 0
-392 28 0
-392 50 0
392 -2 -28 -50 0
-393 6 0
-393 32 0
-393 54 0
393 -6 -32 -54 0
-394 10 0
-394 36 0
-394 58 0
394 -10 -36 -58 0
-395 14 0
-395 40 0
-395 62 0
395 -14 -40 -62 0
-396 18 0
-396 44 0
-396 66 0
396 -18 -44 -66 0
-397 22 0
-397 48 0
-397 70 0
397 -22 -48 -70 0
-398 392 393 0
-398 -392 -393 0
398 -392 393 0
398 392 -393 0
-399 398 394 0
-399 -398 -394 0
399 -398 394 0
399 398 -394 0
-400 399 395 0
-400 -399 -395 0
400 -399 395 0
400 399 -395 0
-401 400 396 0
-401 -400 -396 0
401 -400 396 0
401 400 -396 0
-402 401 397 0
-402 -401 -397 0
402 -401 397 0
402 401 -397 0
402 0
-403 2 0
-403 28 0
-403 51 0
403 -2 -28 -51 0
-404 6 0
-404 32 0
-404 55 0
404 -6 -32 -55 0
-405 10 0
-405 36 0
-405 59 0
405 -10 -36 -59 0
-406 14 0
-406 40 0
-406 63 0
406 -14 -40 -63 0
-407 18 0
-407 44 0
-407 67 0
407 -18 -44 -67 0
-408 22 0
-408 48 0
-408 71 0
408 -22 -48 -71 0
-409 403 404 0
-409 -403 -404 0
409 -403 404 0
409 403 -404 0
-410 409 405 0
-410 -409 -405 0
410 -409 405 0
410 409 -405 0
-411 410 406 0
-411 -410 -406 0
411 -410 406 0
411 410 -406 0
-412 411 407 0
-412 -411 -407 0
412 -411 407 0
412 411 -407 0
-413 412 408 0
-413 -412 -408 0
413 -412 408 0
413 412 -408 0
-413 0
-414 2 0
-414 28 0
-414 52 0
414 -2 -28 -52 0
-415 6 0
-415 32 0
-415 56 0
415 -6 -32 -56 0
-416 10 0
-416 36 0
-416 60 0
416 -10 -36 -60 0
-417 14 0
-417 40 0
-417 64 0
417 -14 -40 -64 0
-418 18 0
-418 44 0
-418 68 0
418 -18 -44 -68 0
-419 22 0
-419 48 0
-419 72 0
419 -22 -48 -72 0
-420 414 415 0
-420 -414 -415 0
420 -414 415 0
420 414 -415 0
-421 420 416 0
-421 -420 -416 0
421 -420 416 0
421 420 -416 0
-422 421 417 0
-422 -421 -417 0
422 -421 417 0
422 421 -417 0
-423 422 418 0
-423 -422 -418 0
423 -422 418 0
423 422 -418 0
-424 423 419 0
-424 -423 -419 0
424 -423 419 0
424 423 -419 0
-424 0
-425 3 0
-425 25 0
-425 49 0
425 -3 -25 -49 0
-426 7 0
-426 29 0
-426 53 0
426 -7 -29 -53 0
-427 11 0
-427 33 0
-427 57 0
427 -11 -33 -57 0
-428 15 0
-428 37 0
-428 61 0
428 -15 -37 -61 0
-429 19 0
-429 41 0
-429 65 0
429 -19 -41 -65 0
-430 23 0
-430 45 0
-430 69 0
430 -23 -45 -69 0
-431 425 426 0
-431 -425 -426 0
431 -425 426 0
431 425 -426 0
-432 431 427 0
-432 -431 -427 0
432 -431 427 0
432 431 -427 0
-433 432 428 0
-433 -432 -428 0
433 -432 428 0
433 432 -428 0
-434 433 429 0
-434 -433 -429 0
434 -433 429 0
434 433 -429 0
-435 434 430 0
-435 -434 -430 0
435 -434 430 0
435 434 -430 0
-435 0
-436 3 0
-436 25 0
-436 50 0
436 -3 -25 -50 0
-437 7 0
-437 29 0
-437 54 0
437 -7 -29 -54 0
-438 11 0
-438 33 0
-438 58 0
438 -11 -33 -58 0
-439 15 0
-439 37 0
-439 62 0
439 -15 -37 -62 0
-440 19 0
-440 41 0
-440 66 0
440 -19 -41 -66 0
-441 23 0
-441 45 0
-441 70 0
441 -23 -45 -70 0
-442 436 437 0
-442 -436 -437 0
442 -436 437 0
442 436 -437 0
-443 442 438 0
-443 -442 -438 0
443 -442 438 0
443 442 -438 0
-444 443 439 0
-444 -443 -439 0
444 -443 439 0
444 443 -439 0
-445 444 440 0
-445 -444 -440 0
445 -444 440 0
445 444 -440 0
-446 445 441 0
-446 -445 -441 0
446 -445 441 0
446 445 -441 0
-446 0
-447 3 0
-447 25 0
-447 51 0
447 -3 -25 -51 0
-448 7 0
-448 29 0
-448 55 0
448 -7 -29 -55 0
-449 11 0
-449 33 0
-449 59 0
449 -11 -33 -59 0
-450 15 0
-450 37 0
-450 63 0
450 -15 -37 -63 0
-451 19 0
-451 41 0
-451 67 0
451 -19 -41 -67 0
-452 23 0
-452 45 0
-452 71 0
452 -23 -45 -71 0
-453 447 448 0
-453 -447 -448 0
453 -447 448 0
453 447 -448 0
-454 453 449 0
-454 -453 -449 0
454 -453 449 0
454 453 -449 0
-455 454 450 0
-455 -454 -450 0
455 -454 450 0
455 454 -450 0
-456 455 451 0
-456 -455 -451 0
456 -455 451 0
456 455 -451 0
-457 456 452 0
-457 -456 -452 0
457 -456 452 0
457 456 -452 0
457 0
-458 3 0
-458 25 0
-458 52 0
458 -3 -25 -52 0
-459 7 0
-459 29 0
-459 56 0
459 -7 -29 -56 0
-460 11 0
-460 33 0
-460 60 0
460 -11 -33 -60 0
-461 15 0
-461 37 0
-461 64 0
461 -15 -37 -64 0
-462 19 0
-462 41 0
-462 68 0
462 -19 -41 -68 0
-463 23 0
-463 45 0
-463 72 0
463 -23 -45 -72 0
-464 458 459 0
-464 -458 -459 0
464 -458 459 0
464 458 -459 0
-465 464 460 0
-465 -464 -460 0
465 -464 460 0
465 464 -460 0
-466 465 461 0
-466 -465 -461 0
466 -465 461 0
466 465 -461 0
-467 466 462 0
-467 -466 -462 0
467 -466 462 0
467 466 -462 0
-468 467 463 0
-468 -467 -463 0
468 -467 463 0
468 467 -463 0
-468 0
-469 3 0
-469 26 0
-469 49 0
469 -3 -26 -49 0
-470 7 0
-470 30 0
-470 53 0
470 -7 -30 -53 0
-471 11 0
-471 34 0
-471 57 0
471 -11 -34 -57 0
-472 15 0
-472 38 0
-472 61 0
472 -15 -38 -61 0
-473 19 0
-473 42 0
-473 65 0
473 -19 -42 -65 0
-474 23 0
-474 46 0
-474 69 0
474 -23 -46 -69 0
-475 469 470 0
-475 -469 -470 0
475 -469 470 0
475 469 -470 0
-476 475 471 0
-476 -475 -471 0
476 -475 471 0
476 475 -471 0
-477 476 472 0
-477 -476 -472 0
477 -476 472 0
477 476 -472 0
-478 477 473 0
-478 -477 -473 0
478 -477 473 0
478 477 -473 0
-479 478 474 0
-479 -478 -474 0
479 -478 474 0
479 478 -474 0
-479 0
-480 3 0
-480 26 0
-480 50 0
480 -3 -26 -50 0
-481 7 0
-481 30 0
-481 54 0
481 -7 -30 -54 0
-482 11 0
-482 34 0
-482 58 0
482 -11 -34 -58 0
-483 15 0
-483 38 0
-483 62 0
483 -15 -38 -62 0
-484 19 0
-484 42 0
-484 66 0
484 -19 -42 -66 0
-485 23 0
-485 46 0
-485 70 0
485 -23 -46 -70 0
-486 480 481 0
-486 -480 -481 0
486 -480 481 0
486 480 -481 0
-487 486 482 0
-487 -486 -482 0
487 -486 482 0
487 486 -482 0
-488 487 483 0
-488 -487 -483 0
488 -487 483 0
488 487 -483 0
-489 488 484 0
-489 -488 -484 0
489 -488 484 0
489 488 -484 0
-490 489 485 0
-490 -489 -485 0
490 -489 485 0
490 489 -485 0
-490 0
-491 3 0
-491 26 0
-491 51 0
491 -3 -26 -51 0
-492 7 0
-492 30 0
-492 55 0
492 -7 -30 -55 0
-493 11 0
-493 34 0
-493 59 0
493 -11 -34 -59 0
-494 15 0
-494 38 0
-494 63 0
494 -15 -38 -63 0
-495 19 0
-495 42 0
-495 67 0
495 -19 -42 -67 0
-496 23 0
-496 46 0
-496 71 0
496 -23 -46 -71 0
-497 491 492 0
-497 -491 -492 0
497 -491 492 0
497 491 -492 0
-498 497 493 0
-498 -497 -493 0
498 -497 493 0
498 497 -493 0
-499 498 494 0
-499 -498 -494 0
499 -498 494 0
499 498 -494 0
-500 499 495 0
-500 -499 -495 0
500 -499 495 0
500 499 -495 0
-501 500 496 0
-501 -500 -496 0
501 -500 496 0
501 500 -496 0
-501 0
-502 3 0
-502 26 0
-502 52 0
502 -3 -26 -52 0
-503 7 0
-503 30 0
-503 56 0
503 -7 -30 -56 0
-504 11 0
-504 34 0
-504 60 0
504 -11 -34 -60 0
-505 15 0
-505 38 0
-505 64 0
505 -15 -38 -64 0
-506 19 0
-506 42 0
-506 68 0
506 -19 -42 -68 0
-507 23 0
-507 46 0
-507 72 0
507 -23 -46 -72 0
-508 502 503 0
-508 -502 -503 0
508 -502 503 0
508 502 -503 0
-509 508 504 0
-509 -508 -504 0
509 -508 504 0
509 508 -504 0
-510 509 505 0
-510 -509 -505 0
510 -509 505 0
510 509 -505 0
-511 510 506 0
-511 -510 -506 0
511 -510 506 0
511 510 -506 0
-512 511 507 0
-512 -511 -507 0
512 -511 507 0
512 511 -507 0
512 0
-513 3 0
-513 27 0
-513 49 0
513 -3 -27 -49 0
-514 7 0
-514 31 0
-514 53 0
514 -7 -31 -53 0
-515 11 0
-515 35 0
-515 57 0
515 -11 -35 -57 0
-516 15 0
-516 39 0
-516 61 0
516 -15 -39 -61 0
-517 19 0
-517 43 0
-517 65 0
517 -19 -43 -65 0
-518 23 0
-518 47 0
-518 69 0
518 -23 -47 -69 0
-519 513 514 0
-519 -513 -514 0
519 -513 514 0
519 513 -514 0
-520 519 515 0
-520 -519 -515 0
520 -519 515 0
520 519 -515 0
-521 520 516 0
-521 -520 -516 0
521 -520 516 0
521 520 -516 0
-522 521 517 0
-522 -521 -517 0
522 -521 517 0
522 521 -517 0
-523 522 518 0
-523 -522 -518 0
523 -522 518 0
523 522 -518 0
-523 0
-524 3 0
-524 27 0
-524 50 0
524 -3 -27 -50 0
-525 7 0
-525 31 0
-525 54 0
525 -7 -31 -54 0
-526 11 0
-526 35 0
-526 58 0
526 -11 -35 -58 0
-527 15 0
-527 39 0
-527 62 0
527 -15 -39 -62 0
-528 19 0
-528 43 0
-528 66 0
528 -19 -43 -66 0
-529 23 0
-529 47 0
-529 70 0
529 -23 -47 -70 0
-530 524 525 0
-530 -524 -525 0
530 -524 525 0
530 524 -525 0
-531 530 526 0
-531 -530 -526 0
531 -530 526 0
531 530 -526 0
-532 531 527 0
-532 -531 -527 0
532 -531 527 0
532 531 -527 0
-533 532 528 0
-533 -532 -528 0
533 -532 528 0
533 532 -528 0
-534 533 529 0
-534 -533 -529 0
534 -533 529 0
534 533 -529 0
-534 0
-535 3 0
-535 27 0
-535 51 0
535 -3 -27 -51 0
-536 7 0
-536 31 0
-536 55 0
536 -7 -31 -55 0
-537 11 0
-537 35 0
-537 59 0
537 -11 -35 -59 0
-538 15 0
-538 39 0
-538 63 0
538 -15 -39 -63 0
-539 19 0
-539 43 0
-539 67 0
539 -19 -43 -67 0
-540 23 0
-540 47 0
-540 71 0
540 -23 -47 -71 0
-541 535 536 0
-541 -535 -536 0
541 -535 536 0
541 535 -536 0
-542 541 537 0
-542 -541 -537 0
542 -541 537 0
542 541 -537 0
-543 542 538 0
-543 -542 -538 0
543 -542 538 0
543 542 -538 0
-544 543 539 0
-544 -543 -539 0
544 -543 539 0
544 543 -539 0
-545 544 540 0
-545 -544 -540 0
545 -544 540 0
545 544 -540 0
-545 0
-546 3 0
-546 27 0
-546 52 0
546 -3 -27 -52 0
-547 7 0
-547 31 0
-547 56 0
547 -7 -31 -56 0
-548 11 0
-548 35 0
-548 60 0
548 -11 -35 -60 0
-549 15 0
-549 39 0
-549 64 0
549 -15 -39 -64 0
-550 19 0
-550 43 0
-550 68 0
550 -19 -43 -68 0
-551 23 0
-551 47 0
-551 72 0
551 -23 -47 -72 0
-552 546 547 0
-552 -546 -547 0
552 -546 547 0
552 546 -547 0
-553 552 548 0
-553 -552 -548 0
553 -552 548 0
553 552 -548 0
-554 553 549 0
-554 -553 -549 0
554 -553 549 0
554 553 -549 0
-555 554 550 0
-555 -554 -550 0
555 -554 550 0
555 554 -550 0
-556 555 551 0
-556 -555 -551 0
556 -555 551 0
556 555 -551 0
-556 0
-557 3 0
-557 28 0
-557 49 0
557 -3 -28 -49 0
-558 7 0
-558 32 0
-558 53 0
558 -7 -32 -53 0
-559 11 0
-559 36 0
-559 57 0
559 -11 -36 -57 0
-560 15 0
-560 40 0
-560 61 0
560 -15 -40 -61 0
-561 19 0
-561 44 0
-561 65 0
561 -19 -44 -65 0
-562 23 0
-562 48 0
-562 69 0
562 -23 -48 -69 0
-563 557 558 0
-563 -557 -558 0
563 -557 558 0
563 557 -558 0
-564 563 559 0
-564 -563 -559 0
564 -563 559 0
564 563 -559 0
-565 564 560 0
-565 -564 -560 0
565 -564 560 0
565 564 -560 0
-566 565 561 0
-566 -565 -561 0
566 -565 561 0
566 565 -561 0
-567 566 562 0
-567 -566 -562 0
567 -566 562 0
567 566 -562 0
-567 0
-568 3 0
-568 28 0
-568 50 0
568 -3 -28 -50 0
-569 7 0
-569 32 0
-569 54 0
569 -7 -32 -54 0
-570 11 0
-570 36 0
-570 58 0
570 -11 -36 -58 0
-571 15 0
-571 40 0
-571 62 0
571 -15 -40 -62 0
-572 19 0
-572 44 0
-572 66 0
572 -19 -44 -66 0
-573 23 0
-573 48 0
-573 70 0
573 -23 -48 -70 0
-574 568 569 0
-574 -568 -569 0
574 -568 569 0
574 568 -569 0
-575 574 570 0
-575 -574 -570 0
575 -574 570 0
575 574 -570 0
-576 575 571 0
-576 -575 -571 0
576 -575 571 0
576 575 -571 0
-577 576 572 0
-577 -576 -572 0
577 -576 572 0
577 576 -572 0
-578 577 573 0
-578 -577 -573 0
578 -577 573 0
578 577 -573 0
-578 0
-579 3 0
-579 28 0
-579 51 0
579 -3 -28 -51 0
-580 7 0
-580 32 0
-580 55 0
580 -7 -32 -55 0
-581 11 0
-581 36 0
-581 59 0
581 -11 -36 -59 0
-582 15 0
-582 40 0
-582 63 0
582 -15 -40 -63 0
-583 19 0
-583 44 0
-583 67 0
583 -19 -44 -67 0
-584 23 0
-584 48 0
-584 71 0
584 -23 -48 -71 0
-585 579 580 0
-585 -579 -580 0
585 -579 580 0
585 579 -580 0
-586 585 581 0
-586 -585 -581 0
586 -585 581 0
586 585 -581 0
-587 586 582 0
-587 -586 -582 0
587 -586 582 0
587 586 -582 0
-588 587 583 0
-588 -587 -583 0
588 -587 583 0
588 587 -583 0
-589 588 584 0
-589 -588 -584 0
589 -588 584 0
589 588 -584 0
-589 0
-590 3 0
-590 28 0
-590 52 0
590 -3 -28 -52 0
-591 7 0
-591 32 0
-591 56 0
591 -7 -32 -56 0
-592 11 0
-592 36 0
-592 60 0
592 -11 -36 -60 0
-593 15 0
-593 40 0
-593 64 0
593 -15 -40 -64 0
-594 19 0
-594 44 0
-594 68 0
594 -19 -44 -68 0
-595 23 0
-595 48 0
-595 72 0
595 -23 -48 -72 0
-596 590 591 0
-596 -590 -591 0
596 -590 591 0
596 590 -591 0
-597 596 592 0
-597 -596 -592 0
597 -596 592 0
597 596 -592 0
-598 597 593 0
-598 -597 -593 0
598 -597 593 0
598 597 -593 0
-599 598 594 0
-599 -598 -594 0
599 -598 594 0
599 598 -594 0
-600 599 595 0
-600 -599 -595 0
600 -599 595 0
600 599 -595 0
-600 0
-601 4 0
-601 25 0
-601 49 0
601 -4 -25 -49 0
-602 8 0
-602 29 0
-602 53 0
602 -8 -29 -53 0
-603 12 0
-603 33 0
-603 57 0
603 -12 -33 -57 0
-604 16 0
-604 37 0
-604 61 0
604 -16 -37 -61 0
-605 20 0
-605 41 0
-605 65 0
605 -20 -41 -65 0
-606 24 0
-606 45 0
-606 69 0
606 -24 -45 -69 0
-607 601 602 0
-607 -601 -602 0
607 -601 602 0
607 601 -602 0
-608 607 603 0
-608 -607 -603 0
608 -607 603 0
608 607 -603 0
-609 608 604 0
-609 -608 -604 0
609 -608 604 0
609 608 -604 0
-610 609 605 0
-610 -609 -605 0
610 -609 605 0
610 609 -605 0
-611 610 606 0
-611 -610 -606 0
611 -610 606 0
611 610 -606 0
-611 0
-612 4 0
-612 25 0
-612 50 0
612 -4 -25 -50 0
-613 8 0
-613 29 0
-613 54 0
613 -8 -29 -54 0
-614 12 0
-614 33 0
-614 58 0
614 -12 -33 -58 0
-615 16 0
-615 37 0
-615 62 0
615 -16 -37 -62 0
-616 20 0
-616 41 0
-616 66 0
616 -20 -41 -66 0
-617 24 0
-617 45 0
-617 70 0
617 -24 -45 -70 0
-618 612 613 0
-618 -612 -613 0
618 -612 613 0
618 612 -613 0
-619 618 614 0
-619 -618 -614 0
619 -618 614 0
619 618 -614 0
-620 619 615 0
-620 -619 -615 0
620 -619 615 0
620 619 -615 0
-621 620 616 0
-621 -620 -616 0
621 -620 616 0
621 620 -616 0
-622 621 617 0
-622 -621 -617 0
622 -621 617 0
622 621 -617 0
-622 0
-623 4 0
-623 25 0
-623 51 0
623 -4 -25 -51 0
-624 8 0
-624 29 0
-624 55 0
624 -8 -29 -55 0
-625 12 0
-625 33 0
-625 59 0
625 -12 -33 -59 0
-626 16 0
-626 37 0
-626 63 0
626 -16 -37 -63 0
-627 20 0
-627 41 0
-627 67 0
627 -20 -41 -67 0
-628 24 0
-628 45 0
-628 71 0
628 -24 -45 -71 0
-629 623 624 0
-629 -623 -624 0
629 -623 624 0
629 623 -624 0
-630 629 625 0
-630 -629 -625 0
630 -629 625 0
630 629 -625 0
-631 630 626 0
-631 -630 -626 0
631 -630 626 0
631 630 -626 0
-632 631 627 0
-632 -631 -627 0
632 -631 627 0
632 631 -627 0
-633 632 628 0
-633 -632 -628 0
633 -632 628 0
633 632 -628 0
-633 0
-634 4 0
-634 25 0
-634 52 0
634 -4 -25 -52 0
-635 8 0
-635 29 0
-635 56 0
635 -8 -29 -56 0
-636 12 0
-636 33 0
-636 60 0
636 -12 -33 -60 0
-637 16 0
-637 37 0
-637 64 0
637 -16 -37 -64 0
-638 20 0
-638 41 0
-638 68 0
638 -20 -41 -68 0
-639 24 0
-639 45 0
-639 72 0
639 -24 -45 -72 0
-640 634 635 0
-640 -634 -635 0
640 -634 635 0
640 634 -635 0
-641 640 636 0
-641 -640 -636 0
641 -640 636 0
641 640 -636 0
-642 641 637 0
-642 -641 -637 0
642 -641 637 0
642 641 -637 0
-643 642 638 0
-643 -642 -638 0
643 -642 638 0
643 642 -638 0
-644 643 639 0
-644 -643 -639 0
644 -643 639 0
644 643 -639 0
-644 0
-645 4 0
-645 26 0
-645 49 0
645 -4 -26 -49 0
-646 8 0
-646 30 0
-646 53 0
646 -8 -30 -53 0
-647 12 0
-647 34 0
-647 57 0
647 -12 -34 -57 0
-648 16 0
-648 38 0
-648 61 0
648 -16 -38 -61 0
-649 20 0
-649 42 0
-649 65 0
649 -20 -42 -65 0
-650 24 0
-650 46 0
-650 69 0
650 -24 -46 -69 0
-651 645 646 0
-651 -645 -646 0
651 -645 646 0
651 645 -646 0
-652 651 647 0
-652 -651 -647 0
652 -651 647 0
652 651 -647 0
-653 652 648 0
-653 -652 -648 0
653 -652 648 0
653 652 -648 0
-654 653 649 0
-654 -653 -649 0
654 -653 649 0
654 653 -649 0
-655 654 650 0
-655 -654 -650 0
655 -654 650 0
655 654 -650 0
-655 0
-656 4 0
-656 26 0
-656 50 0
656 -4 -26 -50 0
-657 8 0
-657 30 0
-657 54 0
657 -8 -30 -54 0
-658 12 0
-658 34 0
-658 58 0
658 -12 -34 -58 0
-659 16 0
-659 38 0
-659 62 0
659 -16 -38 -62 0
-660 20 0
-660 42 0
-660 66 0
660 -20 -42 -66 0
-661 24 0
-661 46 0
-661 70 0
661 -24 -46 -70 0
-662 656 657 0
-662 -656 -657 0
662 -656 657 0
662 656 -657 0
-663 662 658 0
-663 -662 -658 0
663 -662 658 0
663 662 -658 0
-664 663 659 0
-664 -663 -659 0
664 -663 659 0
664 663 -659 0
-665 664 660 0
-665 -664 -660 0
665 -664 660 0
665 664 -660 0
-666 665 661 0
-666 -665 -661 0
666 -665 661 0
666 665 -661 0
-666 0
-667 4 0
-667 26 0
-667 51 0
667 -4 -26 -51 0
-668 8 0
-668 30 0
-668 55 0
668 -8 -30 -55 0
-669 12 0
-669 34 0
-669 59 0
669 -12 -34 -59 0
-670 16 0
-670 38 0
-670 63 0
670 -16 -38 -63 0
-671 20 0
-671 42 0
-671 67 0
671 -20 -42 -67 0
-672 24 0
-672 46 0
-672 71 0
672 -24 -46 -71 0
-673 667 668 0
-673 -667 -668 0
673 -667 668 0
673 667 -668 0
-674 673 669 0
-674 -673 -669 0
674 -673 669 0
674 673 -669 0
-675 674 670 0
-675 -674 -670 0
675 -674 670 0
675 674 -670 0
-676 675 671 0
-676 -675 -671 0
676 -675 671 0
676 675 -671 0
-677 676 672 0
-677 -676 -672 0
677 -676 672 0
677 676 -672 0
-677 0
-678 4 0
-678 26 0
-678 52 0
678 -4 -26 -52 0
-679 8 0
-679 30 0
-679 56 0
679 -8 -30 -56 0
-680 12 0
-680 34 0
-680 60 0
680 -12 -34 -60 0
-681 16 0
-681 38 0
-681 64 0
681 -16 -38 -64 0
-682 20 0
-682 42 0
-682 68 0
682 -20 -42 -68 0
-683 24 0
-683 46 0
-683 72 0
683 -24 -46 -72 0
-684 678 679 0
-684 -678 -679 0
684 -678 679 0
684 678 -679 0
-685 684 680 0
-685 -684 -680 0
685 -684 680 0
685 684 -680 0
-686 685 681 0
-686 -685 -681 0
686 -685 681 0
686 685 -681 0
-687 686 682 0
-687 -686 -682 0
687 -686 682 0
687 686 -682 0
-688 687 683 0
-688 -687 -683 0
688 -687 683 0
688 687 -683 0
-688 0
-689 4 0
-689 27 0
-689 49 0
689 -4 -27 -49 0
-690 8 0
-690 31 0
-690 53 0
690 -8 -31 -53 0
-691 12 0
-691 35 0
-691 57 0
691 -12 -35 -57 0
-692 16 0
-692 39 0
-692 61 0
692 -16 -39 -61 0
-693 20 0
-693 43 0
-693 65 0
693 -20 -43 -65 0
-694 24 0
-694 47 0
-694 69 0
694 -24 -47 -69 0
-695 689 690 0
-695 -689 -690 0
695 -689 690 0
695 689 -690 0
-696 695 691 0
-696 -695 -691 0
696 -695 691 0
696 695 -691 0
-697 696 692 0
-697 -696 -692 0
697 -696 692 0
697 696 -692 0
-698 697 693 0
-698 -697 -693 0
698 -697 693 0
698 697 -693 0
-699 698 694 0
-699 -698 -694 0
699 -698 694 0
699 698 -694 0
-699 0
-700 4 0
-700 27 0
-700 50 0
700 -4 -27 -50 0
-701 8 0
-701 31 0
-701 54 0
701 -8 -31 -54 0
-702 12 0
-702 35 0
-702 58 0
702 -12 -35 -58 0
-703 16 0
-703 39 0
-703 62 0
703 -16 -39 -62 0
-704 20 0
-704 43 0
-704 66 0
704 -20 -43 -66 0
-705 24 0
-705 47 0
-705 70 0
705 -24 -47 -70 0
-706 700 701 0
-706 -700 -701 0
706 -700 701 0
706 700 -701 0
-707 706 702 0
-707 -706 -702 0
707 -706 702 0
707 706 -702 0
-708 707 703 0
-708 -707 -703 0
708 -707 703 0
708 707 -703 0
-709 708 704 0
-709 -708 -704 0
709 -708 704 0
709 708 -704 0
-710 709 705 0
-710 -709 -705 0
710 -709 705 0
710 709 -705 0
-710 0
-711 4 0
-711 27 0
-711 51 0
711 -4 -27 -51 0
-712 8 0
-712 31 0
-712 55 0
712 -8 -31 -55 0
-713 12 0
-713 35 0
-713 59 0
713 -12 -35 -59 0
-714 16 0
-714 39 0
-714 63 0
714 -16 -39 -63 0
-715 20 0
-715 43 0
-715 67 0
715 -20 -43 -67 0
-716 24 0
-716 47 0
-716 71 0
716 -24 -47 -71 0
-717 711 712 0
-717 -711 -712 0
717 -711 712 0
717 711 -712 0
-718 717 713 0
-718 -717 -713 0
718 -717 713 0
718 717 -713 0
-719 718 714 0
-719 -718 -714 0
719 -718 714 0
719 718 -714 0
-720 719 715 0
-720 -719 -715 0
720 -719 715 0
720 719 -715 0
-721 720 716 0
-721 -720 -716 0
721 -720 716 0
721 720 -716 0
721 0
-722 4 0
-722 27 0
-722 52 0
722 -4 -27 -52 0
-723 8 0
-723 31 0
-723 56 0
723 -8 -31 -56 0
-724 12 0
-724 35 0
-724 60 0
724 -12 -35 -60 0
-725 16 0
-725 39 0
-725 64 0
725 -16 -39 -64 0
-726 20 0
-726 43 0
-726 68 0
726 -20 -43 -68 0
-727 24 0
-727 47 0
-727 72 0
727 -24 -47 -72 0
-728 722 723 0
-728 -722 -723 0
728 -722 723 0
728 722 -723 0
-729 728 724 0
-729 -728 -724 0
729 -728 724 0
729 728 -724 0
-730 729 725 0
-730 -729 -725 0
730 -729 725 0
730 729 -725 0
-731 730 726 0
-731 -730 -726 0
731 -730 726 0
731 730 -726 0
-732 731 727 0
-732 -731 -727 0
732 -731 727 0
732 731 -727 0
-732 0
-733 4 0
-733 28 0
-733 49 0
733 -4 -28 -49 0
-734 8 0
-734 32 0
-734 53 0
734 -8 -32 -53 0
-735 12 0
-735 36 0
-735 57 0
735 -12 -36 -57 0
-736 16 0
-736 40 0
-736 61 0
736 -16 -40 -61 0
-737 20 0
-737 44 0
-737 65 0
737 -20 -44 -65 0
-738 24 0
-738 48 0
-738 69 0
738 -24 -48 -69 0
-739 733 734 0
-739 -733 -734 0
739 -733 734 0
739 733 -734 0
-740 739 735 0
-740 -739 -735 0
740 -739 735 0
740 739 -735 0
-741 740 736 0
-741 -740 -736 0
741 -740 736 0
741 740 -736 0
-742 741 737 0
-742 -741 -737 0
742 -741 737 0
742 741 -737 0
-743 742 738 0
-743 -742 -738 0
743 -742 738 0
743 742 -738 0
-743 0
-744 4 0
-744 28 0
-744 50 0
744 -4 -28 -50 0
-745 8 0
-745 32 0
-745 54 0
745 -8 -32 -54 0
-746 12 0
-746 36 0
-746 58 0
746 -12 -36 -58 0
-747 16 0
-747 40 0
-747 62 0
747 -16 -40 -62 0
-748 20 0
-748 44 0
-748 66 0
748 -20 -44 -66 0
-749 24 0
-749 48 0
-749 70 0
749 -24 -48 -70 0
-750 744 745 0
-750 -744 -745 0
750 -744 745 0
750 744 -745 0
-751 750 746 0
-751 -750 -746 0
751 -750 746 0
751 750 -746 0
-752 751 747 0
-752 -751 -747 0
752 -751 747 0
752 751 -747 0
-753 752 748 0
-753 -752 -748 0
753 -752 748 0
753 752 -748 0
-754 753 749 0
-754 -753 -749 0
754 -753 749 0
754 753 -749 0
-754 0
-755 4 0
-755 28 0
-755 51 0
755 -4 -28 -51 0
-756 8 0
-756 32 0
-756 55 0
756 -8 -32 -55 0
-757 12 0
-757 36 0
-757 59 0
757 -12 -36 -59 0
-758 16 0
-758 40 0
-758 63 0
758 -16 -40 -63 0
-759 20 0
-759 44 0
-759 67 0
759 -20 -44 -67 0
-760 24 0
-760 48 0
-760 71 0
760 -24 -48 -71 0
-761 755 756 0
-761 -755 -756 0
761 -755 756 0
761 755 -756 0
-762 761 757 0
-762 -761 -757 0
762 -761 757 0
762 761 -757 0
-763 762 758 0
-763 -762 -758 0
763 -762 758 0
763 762 -758 0
-764 763 759 0
-764 -763 -759 0
764 -763 759 0
764 763 -759 0
-765 764 760 0
-765 -764 -760 0
765 -764 760 0
765 764 -760 0
-765 0
-766 4 0
-766 28 0
-766 52 0
766 -4 -28 -52 0
-767 8 0
-767 32 0
-767 56 0
767 -8 -32 -56 0
-768 12 0
-768 36 0
-768 60 0
768 -12 -36 -60 0
-769 16 0
-769 40 0
-769 64 0
769 -16 -40 -64 0
-770 20 0
-770 44 0
-770 68 0
770 -20 -44 -68 0
-771 24 0
-771 48 0
-771 72 0
771 -24 -48 -72 0
-772 766 767 0
-772 -766 -767 0
772 -766 767 0
772 766 -767 0
-773 772 768 0
-773 -772 -768 0
773 -772 768 0
773 772 -768 0
-774 773 769 0
-774 -773 -769 0
774 -773 769 0
774 773 -769 0
-775 774 770 0
-775 -774 -770 0
775 -774 770 0
775 774 -770 0
-776 775 771 0
-776 -775 -771 0
776 -775 771 0
776 775 -771 0
776 0
