p cnf 3200 12240
-177 1 0
-177 45 0
-177 111 0
177 -1 -45 -111 0
-178 5 0
-178 51 0
-178 117 0
178 -5 -51 -117 0
-179 9 0
-179 57 0
-179 123 0
179 -9 -57 -123 0
-180 13 0
-180 63 0
-180 129 0
180 -13 -63 -129 0
-181 17 0
-181 69 0
-181 135 0
181 -17 -69 -135 0
-182 21 0
-182 75 0
-182 141 0
182 -21 -75 -141 0
-183 25 0
-183 81 0
-183 147 0
183 -25 -81 -147 0
-184 29 0
-184 87 0
-184 153 0
184 -29 -87 -153 0
-185 33 0
-185 93 0
-185 159 0
185 -33 -93 -159 0
-186 37 0
-186 99 0
-186 165 0
186 -37 -99 -165 0
-187 41 0
-187 105 0
-187 171 0
187 -41 -105 -171 0
-188 177 178 0
-188 -177 -178 0
188 -177 178 0
188 177 -178 0
-189 188 179 0
-189 -188 -179 0
189 -188 179 0
189 188 -179 0
-190 189 180 0
-190 -189 -180 0
190 -189 180 0
190 189 -180 0
-191 190 181 0
-191 -190 -181 0
191 -190 181 0
191 190 -181 0
-192 191 182 0
-192 -191 -182 0
192 -191 182 0
192 191 -182 0
-193 192 183 0
-193 -192 -183 0
193 -192 183 0
193 192 -183 0
-194 193 184 0
-194 -193 -184 0
194 -193 184 0
194 193 -184 0
-195 194 185 0
-195 -194 -185 0
195 -194 185 0
195 194 -185 0
-196 195 186 0
-196 -195 -186 0
196 -195 186 0
196 195 -186 0
-197 196 187 0
-197 -196 -187 0
197 -196 187 0
197 196 -187 0
197 0
-198 1 0
-198 45 0
-198 112 0
198 -1 -45 -112 0
-199 5 0
-199 51 0
-199 118 0
199 -5 -51 -118 0
-200 9 0
-200 57 0
-200 124 0
200 -9 -57 -124 0
-201 13 0
-201 63 0
-201 130 0
201 -13 -63 -130 0
-202 17 0
-202 69 0
-202 136 0
202 -17 -69 -136 0
-203 21 0
-203 75 0
-203 142 0
203 -21 -75 -142 0
-204 25 0
-204 81 0
-204 148 0
204 -25 -81 -148 0
-205 29 0
-205 87 0
-205 154 0
205 -29 -87 -154 0
-206 33 0
-206 93 0
-206 160 0
206 -33 -93 -160 0
-207 37 0
-207 99 0
-207 166 0
207 -37 -99 -166 0
-208 41 0
-208 105 0
-208 172 0
208 -41 -105 -172 0
-209 198 199 0
-209 -198 -199 0
209 -198 199 0
209 198 -199 0
-210 209 200 0
-210 -209 -200 0
210 -209 200 0
210 209 -200 0
-211 210 201 0
-211 -210 -201 0
211 -210 201 0
211 210 -201 0
-212 211 202 0
-212 -211 -202 0
212 -211 202 0
212 211 -202 0
-213 212 203 0
-213 -212 -203 0
213 -212 203 0
213 212 -203 0
-214 213 204 0
-214 -213 -204 0
214 -213 204 0
214 213 -204 0
-215 214 205 0
-215 -214 -205 0
215 -214 205 0
215 214 -205 0
-216 215 206 0
-216 -215 -206 0
216 -215 206 0
216 215 -206 0
-217 216 207 0
-217 -216 -207 0
217 -216 207 0
217 216 -207 0
-218 217 208 0
-218 -217 -208 0
218 -217 208 0
218 217 -208 0
-218 0
-219 1 0
-219 45 0
-219 113 0
219 -1 -45 -113 0
-220 5 0
-220 51 0
-220 119 0
220 -5 -51 -119 0
-221 9 0
-221 57 0
-221 125 0
221 -9 -57 -125 0
-222 13 0
-222 63 0
-222 131 0
222 -13 -63 -131 0
-223 17 0
-223 69 0
-223 137 0
223 -17 -69 -137 0
-224 21 0
-224 75 0
-224 143 0
224 -21 -75 -143 0
-225 25 0
-225 81 0
-225 149 0
225 -25 -81 -149 0
-226 29 0
-226 87 0
-226 155 0
226 -29 -87 -155 0
-227 33 0
-227 93 0
-227 161 0
227 -33 -93 -161 0
-228 37 0
-228 99 0
-228 167 0
228 -37 -99 -167 0
-229 41 0
-229 105 0
-229 173 0
229 -41 -105 -173 0
-230 219 220 0
-230 -219 -220 0
230 -219 220 0
230 219 -220 0
-231 230 221 0
-231 -230 -221 0
231 -230 221 0
231 230 -221 0
-232 231 222 0
-232 -231 -222 0
232 -231 222 0
232 231 -222 0
-233 232 223 0
-233 -232 -223 0
233 -232 223 0
233 232 -223 0
-234 233 224 0
-234 -233 -224 0
234 -233 224 0
234 233 -224 0
-235 234 225 0
-235 -234 -225 0
235 -234 225 0
235 234 -225 0
-236 235 226 0
-236 -235 -226 0
236 -235 226 0
236 235 -226 0
-237 236 227 0
-237 -236 -227 0
237 -236 227 0
237 236 -227 0
-238 237 228 0
-238 -237 -228 0
238 -237 228 0
238 237 -228 0
-239 238 229 0
-239 -238 -229 0
239 -238 229 0
239 238 -229 0
-239 0
-240 1 0
-240 45 0
-240 114 0
240 -1 -45 -114 0
-241 5 0
-241 51 0
-241 120 0
241 -5 -51 -120 0
-242 9 0
-242 57 0
-242 126 0
242 -9 -57 -126 0
-243 13 0
-243 63 0
-243 132 0
243 -13 -63 -132 0
-244 17 0
-244 69 0
-244 138 0
244 -17 -69 -138 0
-245 21 0
-245 75 0
-245 144 0
245 -21 -75 -144 0
-246 25 0
-246 81 0
-246 150 0
246 -25 -81 -150 0
-247 29 0
-247 87 0
-247 156 0
247 -29 -87 -156 0
-248 33 0
-248 93 0
-248 162 0
248 -33 -93 -162 0
-249 37 0
-249 99 0
-249 168 0
249 -37 -99 -168 0
-250 41 0
-250 105 0
-250 174 0
250 -41 -105 -174 0
-251 240 241 0
-251 -240 -241 0
251 -240 241 0
251 240 -241 0
-252 251 242 0
-252 -251 -242 0
252 -251 242 0
252 251 -242 0
-253 252 243 0
-253 -252 -243 0
253 -252 243 0
253 252 -243 0
-254 253 244 0
-254 -253 -244 0
254 -253 244 0
254 253 -244 0
-255 254 245 0
-255 -254 -245 0
255 -254 245 0
255 254 -245 0
-256 255 246 0
-256 -255 -246 0
256 -255 246 0
256 255 -246 0
-257 256 247 0
-257 -256 -247 0
257 -256 247 0
257 256 -247 0
-258 257 248 0
-258 -257 -248 0
258 -257 248 0
258 257 -248 0
-259 258 249 0
-259 -258 -249 0
259 -258 249 0
259 258 -249 0
-260 259 250 0
-260 -259 -250 0
260 -259 250 0
260 259 -250 0
-260 0
-261 1 0
-261 45 0
-261 115 0
261 -1 -45 -115 0
-262 5 0
-262 51 0
-262 121 0
262 -5 -51 -121 0
-263 9 0
-263 57 0
-263 127 0
263 -9 -57 -127 0
-264 13 0
-264 63 0
-264 133 0
264 -13 -63 -133 0
-265 17 0
-265 69 0
-265 139 0
265 -17 -69 -139 0
-266 21 0
-266 75 0
-266 145 0
266 -21 -75 -145 0
-267 25 0
-267 81 0
-267 151 0
267 -25 -81 -151 0
-268 29 0
-268 87 0
-268 157 0
268 -29 -87 -157 0
-269 33 0
-269 93 0
-269 163 0
269 -33 -93 -163 0
-270 37 0
-270 99 0
-270 169 0
270 -37 -99 -169 0
-271 41 0
-271 105 0
-271 175 0
271 -41 -105 -175 0
-272 261 262 0
-272 -261 -262 0
272 -261 262 0
272 261 -262 0
-273 272 263 0
-273 -272 -263 0
273 -272 263 0
273 272 -263 0
-274 273 264 0
-274 -273 -264 0
274 -273 264 0
274 273 -264 0
-275 274 265 0
-275 -274 -265 0
275 -274 265 0
275 274 -265 0
-276 275 266 0
-276 -275 -266 0
276 -275 266 0
276 275 -266 0
-277 276 267 0
-277 -276 -267 0
277 -276 267 0
277 276 -267 0
-278 277 268 0
-278 -277 -268 0
278 -277 268 0
278 277 -268 0
-279 278 269 0
-279 -278 -269 0
279 -278 269 0
279 278 -269 0
-280 279 270 0
-280 -279 -270 0
280 -279 270 0
280 279 -270 0
-281 280 271 0
-281 -280 -271 0
281 -280 271 0
281 280 -271 0
-281 0
-282 1 0
-282 45 0
-282 116 0
282 -1 -45 -116 0
-283 5 0
-283 51 0
-283 122 0
283 -5 -51 -122 0
-284 9 0
-284 57 0
-284 128 0
284 -9 -57 -128 0
-285 13 0
-285 63 0
-285 134 0
285 -13 -63 -134 0
-286 17 0
-286 69 0
-286 140 0
286 -17 -69 -140 0
-287 21 0
-287 75 0
-287 146 0
287 -21 -75 -146 0
-288 25 0
-288 81 0
-288 152 0
288 -25 -81 -152 0
-289 29 0
-289 87 0
-289 158 0
289 -29 -87 -158 0
-290 33 0
-290 93 0
-290 164 0
290 -33 -93 -164 0
-291 37 0
-291 99 0
-291 170 0
291 -37 -99 -170 0
-292 41 0
-292 105 0
-292 176 0
292 -41 -105 -176 0
-293 282 283 0
-293 -282 -283 0
293 -282 283 0
293 282 -283 0
-294 293 284 0
-294 -293 -284 0
294 -293 284 0
294 293 -284 0
-295 294 285 0
-295 -294 -285 0
295 -294 285 0
295 294 -285 0
-296 295 286 0
-296 -295 -286 0
296 -295 286 0
296 295 -286 0
-297 296 287 0
-297 -296 -287 0
297 -296 287 0
297 296 -287 0
-298 297 288 0
-298 -297 -288 0
298 -297 288 0
298 297 -288 0
-299 298 289 0
-299 -298 -289 0
299 -298 289 0
299 298 -289 0
-300 299 290 0
-300 -299 -290 0
300 -299 290 0
300 299 -290 0
-301 300 291 0
-301 -300 -291 0
301 -300 291 0
301 300 -291 0
-302 301 292 0
-302 -301 -292 0
302 -301 292 0
302 301 -292 0
-302 0
-303 1 0
-303 46 0
-303 111 0
303 -1 -46 -111 0
-304 5 0
-304 52 0
-304 117 0
304 -5 -52 -117 0
-305 9 0
-305 58 0
-305 123 0
305 -9 -58 -123 0
-306 13 0
-306 64 0
-306 129 0
306 -13 -64 -129 0
-307 17 0
-307 70 0
-307 135 0
307 -17 -70 -135 0
-308 21 0
-308 76 0
-308 141 0
308 -21 -76 -141 0
-309 25 0
-309 82 0
-309 147 0
309 -25 -82 -147 0
-310 29 0
-310 88 0
-310 153 0
310 -29 -88 -153 0
-311 33 0
-311 94 0
-311 159 0
311 -33 -94 -159 0
-312 37 0
-312 100 0
-312 165 0
312 -37 -100 -165 0
-313 41 0
-313 106 0
-313 171 0
313 -41 -106 -171 0
-314 303 304 0
-314 -303 -304 0
314 -303 304 0
314 303 -304 0
-315 314 305 0
-315 -314 -305 0
315 -314 305 0
315 314 -305 0
-316 315 306 0
-316 -315 -306 0
316 -315 306 0
316 315 -306 0
-317 316 307 0
-317 -316 -307 0
317 -316 307 0
317 316 -307 0
-318 317 308 0
-318 -317 -308 0
318 -317 308 0
318 317 -308 0
-319 318 309 0
-319 -318 -309 0
319 -318 309 0
319 318 -309 0
-320 319 310 0
-320 -319 -310 0
320 -319 310 0
320 319 -310 0
-321 320 311 0
-321 -320 -311 0
321 -320 311 0
321 320 -311 0
-322 321 312 0
-322 -321 -312 0
322 -321 312 0
322 321 -312 0
-323 322 313 0
-323 -322 -313 0
323 -322 313 0
323 322 -313 0
-323 0
-324 1 0
-324 46 0
-324 112 0
324 -1 -46 -112 0
-325 5 0
-325 52 0
-325 118 0
325 -5 -52 -118 0
-326 9 0
-326 58 0
-326 124 0
326 -9 -58 -124 0
-327 13 0
-327 64 0
-327 130 0
327 -13 -64 -130 0
-328 17 0
-328 70 0
-328 136 0
328 -17 -70 -136 0
-329 21 0
-329 76 0
-329 142 0
329 -21 -76 -142 0
-330 25 0
-330 82 0
-330 148 0
330 -25 -82 -148 0
-331 29 0
-331 88 0
-331 154 0
331 -29 -88 -154 0
-332 33 0
-332 94 0
-332 160 0
332 -33 -94 -160 0
-333 37 0
-333 100 0
-333 166 0
333 -37 -100 -166 0
-334 41 0
-334 106 0
-334 172 0
334 -41 -106 -172 0
-335 324 325 0
-335 -324 -325 0
335 -324 325 0
335 324 -325 0
-336 335 326 0
-336 -335 -326 0
336 -335 326 0
336 335 -326 0
-337 336 327 0
-337 -336 -327 0
337 -336 327 0
337 336 -327 0
-338 337 328 0
-338 -337 -328 0
338 -337 328 0
338 337 -328 0
-339 338 329 0
-339 -338 -329 0
339 -338 329 0
339 338 -329 0
-340 339 330 0
-340 -339 -330 0
340 -339 330 0
340 339 -330 0
-341 340 331 0
-341 -340 -331 0
341 -340 331 0
341 340 -331 0
-342 341 332 0
-342 -341 -332 0
342 -341 332 0
342 341 -332 0
-343 342 333 0
-343 -342 -333 0
343 -342 333 0
343 342 -333 0
-344 343 334 0
-344 -343 -334 0
344 -343 334 0
344 343 -334 0
344 0
-345 1 0
-345 46 0
-345 113 0
345 -1 -46 -113 0
-346 5 0
-346 52 0
-346 119 0
346 -5 -52 -119 0
-347 9 0
-347 58 0
-347 125 0
347 -9 -58 -125 0
-348 13 0
-348 64 0
-348 131 0
348 -13 -64 -131 0
-349 17 0
-349 70 0
-349 137 0
349 -17 -70 -137 0
-350 21 0
-350 76 0
-350 143 0
350 -21 -76 -143 0
-351 25 0
-351 82 0
-351 149 0
351 -25 -82 -149 0
-352 29 0
-352 88 0
-352 155 0
352 -29 -88 -155 0
-353 33 0
-353 94 0
-353 161 0
353 -33 -94 -161 0
-354 37 0
-354 100 0
-354 167 0
354 -37 -100 -167 0
-355 41 0
-355 106 0
-355 173 0
355 -41 -106 -173 0
-356 345 346 0
-356 -345 -346 0
356 -345 346 0
356 345 -346 0
-357 356 347 0
-357 -356 -347 0
357 -356 347 0
357 356 -347 0
-358 357 348 0
-358 -357 -348 0
358 -357 348 0
358 357 -348 0
-359 358 349 0
-359 -358 -349 0
359 -358 349 0
359 358 -349 0
-360 359 350 0
-360 -359 -350 0
360 -359 350 0
360 359 -350 0
-361 360 351 0
-361 -360 -351 0
361 -360 351 0
361 360 -351 0
-362 361 352 0
-362 -361 -352 0
362 -361 352 0
362 361 -352 0
-363 362 353 0
-363 -362 -353 0
363 -362 353 0
363 362 -353 0
-364 363 354 0
-364 -363 -354 0
364 -363 354 0
364 363 -354 0
-365 364 355 0
-365 -364 -355 0
365 -364 355 0
365 364 -355 0
-365 0
-366 1 0
-366 46 0
-366 114 0
366 -1 -46 -114 0
-367 5 0
-367 52 0
-367 120 0
367 -5 -52 -120 0
-368 9 0
-368 58 0
-368 126 0
368 -9 -58 -126 0
-369 13 0
-369 64 0
-369 132 0
369 -13 -64 -132 0
-370 17 0
-370 70 0
-370 138 0
370 -17 -70 -138 0
-371 21 0
-371 76 0
-371 144 0
371 -21 -76 -144 0
-372 25 0
-372 82 0
-372 150 0
372 -25 -82 -150 0
-373 29 0
-373 88 0
-373 156 0
373 -29 -88 -156 0
-374 33 0
-374 94 0
-374 162 0
374 -33 -94 -162 0
-375 37 0
-375 100 0
-375 168 0
375 -37 -100 -168 0
-376 41 0
-376 106 0
-376 174 0
376 -41 -106 -174 0
-377 366 367 0
-377 -366 -367 0
377 -366 367 0
377 366 -367 0
-378 377 368 0
-378 -377 -368 0
378 -377 368 0
378 377 -368 0
-379 378 369 0
-379 -378 -369 0
379 -378 369 0
379 378 -369 0
-380 379 370 0
-380 -379 -370 0
380 -379 370 0
380 379 -370 0
-381 380 371 0
-381 -380 -371 0
381 -380 371 0
381 380 -371 0
-382 381 372 0
-382 -381 -372 0
382 -381 372 0
382 381 -372 0
-383 382 373 0
-383 -382 -373 0
383 -382 373 0
383 382 -373 0
-384 383 374 0
-384 -383 -374 0
384 -383 374 0
384 383 -374 0
-385 384 375 0
-385 -384 -375 0
385 -384 375 0
385 384 -375 0
-386 385 376 0
-386 -385 -376 0
386 -385 376 0
386 385 -376 0
-386 0
-387 1 0
-387 46 0
-387 115 0
387 -1 -46 -115 0
-388 5 0
-388 52 0
-388 121 0
388 -5 -52 -121 0
-389 9 0
-389 58 0
-389 127 0
389 -9 -58 -127 0
-390 13 0
-390 64 0
-390 133 0
390 -13 -64 -133 0
-391 17 0
-391 70 0
-391 139 0
391 -17 -70 -139 0
-392 21 0
-392 76 0
-392 145 0
392 -21 -76 -145 0
-393 25 0
-393 82 0
-393 151 0
393 -25 -82 -151 0
-394 29 0
-394 88 0
-394 157 0
394 -29 -88 -157 0
-395 33 0
-395 94 0
-395 163 0
395 -33 -94 -163 0
-396 37 0
-396 100 0
-396 169 0
396 -37 -100 -169 0
-397 41 0
-397 106 0
-397 175 0
397 -41 -106 -175 0
-398 387 388 0
-398 -387 -388 0
398 -387 388 0
398 387 -388 0
-399 398 389 0
-399 -398 -389 0
399 -398 389 0
399 398 -389 0
-400 399 390 0
-400 -399 -390 0
400 -399 390 0
400 399 -390 0
-401 400 391 0
-401 -400 -391 0
401 -400 391 0
401 400 -391 0
-402 401 392 0
-402 -401 -392 0
402 -401 392 0
402 401 -392 0
-403 402 393 0
-403 -402 -393 0
403 -402 393 0
403 402 -393 0
-404 403 394 0
-404 -403 -394 0
404 -403 394 0
404 403 -394 0
-405 404 395 0
-405 -404 -395 0
405 -404 395 0
405 404 -395 0
-406 405 396 0
-406 -405 -396 0
406 -405 396 0
406 405 -396 0
-407 406 397 0
-407 -406 -397 0
407 -406 397 0
407 406 -397 0
-407 0
-408 1 0
-408 46 0
-408 116 0
408 -1 -46 -116 0
-409 5 0
-409 52 0
-409 122 0
409 -5 -52 -122 0
-410 9 0
-410 58 0
-410 128 0
410 -9 -58 -128 0
-411 13 0
-411 64 0
-411 134 0
411 -13 -64 -134 0
-412 17 0
-412 70 0
-412 140 0
412 -17 -70 -140 0
-413 21 0
-413 76 0
-413 146 0
413 -21 -76 -146 0
-414 25 0
-414 82 0
-414 152 0
414 -25 -82 -152 0
-415 29 0
-415 88 0
-415 158 0
415 -29 -88 -158 0
-416 33 0
-416 94 0
-416 164 0
416 -33 -94 -164 0
-417 37 0
-417 100 0
-417 170 0
417 -37 -100 -170 0
-418 41 0
-418 106 0
-418 176 0
418 -41 -106 -176 0
-419 408 409 0
-419 -408 -409 0
419 -408 409 0
419 408 -409 0
-420 419 410 0
-420 -419 -410 0
420 -419 410 0
420 419 -410 0
-421 420 411 0
-421 -420 -411 0
421 -420 411 0
421 420 -411 0
-422 421 412 0
-422 -421 -412 0
422 -421 412 0
422 421 -412 0
-423 422 413 0
-423 -422 -413 0
423 -422 413 0
423 422 -413 0
-424 423 414 0
-424 -423 -414 0
424 -423 414 0
424 423 -414 0
-425 424 415 0
-425 -424 -415 0
425 -424 415 0
425 424 -415 0
-426 425 416 0
-426 -425 -416 0
426 -425 416 0
426 425 -416 0
-427 426 417 0
-427 -426 -417 0
427 -426 417 0
427 426 -417 0
-428 427 418 0
-428 -427 -418 0
428 -427 418 0
428 427 -418 0
-428 0
-429 1 0
-429 47 0
-429 111 0
429 -1 -47 -111 0
-430 5 0
-430 53 0
-430 117 0
430 -5 -53 -117 0
-431 9 0
-431 59 0
-431 123 0
431 -9 -59 -123 0
-432 13 0
-432 65 0
-432 129 0
432 -13 -65 -129 0
-433 17 0
-433 71 0
-433 135 0
433 -17 -71 -135 0
-434 21 0
-434 77 0
-434 141 0
434 -21 -77 -141 0
-435 25 0
-435 83 0
-435 147 0
435 -25 -83 -147 0
-436 29 0
-436 89 0
-436 153 0
436 -29 -89 -153 0
-437 33 0
-437 95 0
-437 159 0
437 -33 -95 -159 0
-438 37 0
-438 101 0
-438 165 0
438 -37 -101 -165 0
-439 41 0
-439 107 0
-439 171 0
439 -41 -107 -171 0
-440 429 430 0
-440 -429 -430 0
440 -429 430 0
440 429 -430 0
-441 440 431 0
-441 -440 -431 0
441 -440 431 0
441 440 -431 0
-442 441 432 0
-442 -441 -432 0
442 -441 432 0
442 441 -432 0
-443 442 433 0
-443 -442 -433 0
443 -442 433 0
443 442 -433 0
-444 443 434 0
-444 -443 -434 0
444 -443 434 0
444 443 -434 0
-445 444 435 0
-445 -444 -435 0
445 -444 435 0
445 444 -435 0
-446 445 436 0
-446 -445 -436 0
446 -445 436 0
446 445 -436 0
-447 446 437 0
-447 -446 -437 0
447 -446 437 0
447 446 -437 0
-448 447 438 0
-448 -447 -438 0
448 -447 438 0
448 447 -438 0
-449 448 439 0
-449 -448 -439 0
449 -448 439 0
449 448 -439 0
-449 0
-450 1 0
-450 47 0
-450 112 0
450 -1 -47 -112 0
-451 5 0
-451 53 0
-451 118 0
451 -5 -53 -118 0
-452 9 0
-452 59 0
-452 124 0
452 -9 -59 -124 0
-453 13 0
-453 65 0
-453 130 0
453 -13 -65 -130 0
-454 17 0
-454 71 0
-454 136 0
454 -17 -71 -136 0
-455 21 0
-455 77 0
-455 142 0
455 -21 -77 -142 0
-456 25 0
-456 83 0
-456 148 0
456 -25 -83 -148 0
-457 29 0
-457 89 0
-457 154 0
457 -29 -89 -154 0
-458 33 0
-458 95 0
-458 160 0
458 -33 -95 -160 0
-459 37 0
-459 101 0
-459 166 0
459 -37 -101 -166 0
-460 41 0
-460 107 0
-460 172 0
460 -41 -107 -172 0
-461 450 451 0
-461 -450 -451 0
461 -450 451 0
461 450 -451 0
-462 461 452 0
-462 -461 -452 0
462 -461 452 0
462 461 -452 0
-463 462 453 0
-463 -462 -453 0
463 -462 453 0
463 462 -453 0
-464 463 454 0
-464 -463 -454 0
464 -463 454 0
464 463 -454 0
-465 464 455 0
-465 -464 -455 0
465 -464 455 0
465 464 -455 0
-466 465 456 0
-466 -465 -456 0
466 -465 456 0
466 465 -456 0
-467 466 457 0
-467 -466 -457 0
467 -466 457 0
467 466 -457 0
-468 467 458 0
-468 -467 -458 0
468 -467 458 0
468 467 -458 0
-469 468 459 0
-469 -468 -459 0
469 -468 459 0
469 468 -459 0
-470 469 460 0
-470 -469 -460 0
470 -469 460 0
470 469 -460 0
-470 0
-471 1 0
-471 47 0
-471 113 0
471 -1 -47 -113 0
-472 5 0
-472 53 0
-472 119 0
472 -5 -53 -119 0
-473 9 0
-473 59 0
-473 125 0
473 -9 -59 -125 0
-474 13 0
-474 65 0
-474 131 0
474 -13 -65 -131 0
-475 17 0
-475 71 0
-475 137 0
475 -17 -71 -137 0
-476 21 0
-476 77 0
-476 143 0
476 -21 -77 -143 0
-477 25 0
-477 83 0
-477 149 0
477 -25 -83 -149 0
-478 29 0
-478 89 0
-478 155 0
478 -29 -89 -155 0
-479 33 0
-479 95 0
-479 161 0
479 -33 -95 -161 0
-480 37 0
-480 101 0
-480 167 0
480 -37 -101 -167 0
-481 41 0
-481 107 0
-481 173 0
481 -41 -107 -173 0
-482 471 472 0
-482 -471 -472 0
482 -471 472 0
482 471 -472 0
-483 482 473 0
-483 -482 -473 0
483 -482 473 0
483 482 -473 0
-484 483 474 0
-484 -483 -474 0
484 -483 474 0
484 483 -474 0
-485 484 475 0
-485 -484 -475 0
485 -484 475 0
485 484 -475 0
-486 485 476 0
-486 -485 -476 0
486 -485 476 0
486 485 -476 0
-487 486 477 0
-487 -486 -477 0
487 -486 477 0
487 486 -477 0
-488 487 478 0
-488 -487 -478 0
488 -487 478 0
488 487 -478 0
-489 488 479 0
-489 -488 -479 0
489 -488 479 0
489 488 -479 0
-490 489 480 0
-490 -489 -480 0
490 -489 480 0
490 489 -480 0
-491 490 481 0
-491 -490 -481 0
491 -490 481 0
491 490 -481 0
491 0
-492 1 0
-492 47 0
-492 114 0
492 -1 -47 -114 0
-493 5 0
-493 53 0
-493 120 0
493 -5 -53 -120 0
-494 9 0
-494 59 0
-494 126 0
494 -9 -59 -126 0
-495 13 0
-495 65 0
-495 132 0
495 -13 -65 -132 0
-496 17 0
-496 71 0
-496 138 0
496 -17 -71 -138 0
-497 21 0
-497 77 0
-497 144 0
497 -21 -77 -144 0
-498 25 0
-498 83 0
-498 150 0
498 -25 -83 -150 0
-499 29 0
-499 89 0
-499 156 0
499 -29 -89 -156 0
-500 33 0
-500 95 0
-500 162 0
500 -33 -95 -162 0
-501 37 0
-501 101 0
-501 168 0
501 -37 -101 -168 0
-502 41 0
-502 107 0
-502 174 0
502 -41 -107 -174 0
-503 492 493 0
-503 -492 -493 0
503 -492 493 0
503 492 -493 0
-504 503 494 0
-504 -503 -494 0
504 -503 494 0
504 503 -494 0
-505 504 495 0
-505 -504 -495 0
505 -504 495 0
505 504 -495 0
-506 505 496 0
-506 -505 -496 0
506 -505 496 0
506 505 -496 0
-507 506 497 0
-507 -506 -497 0
507 -506 497 0
507 506 -497 0
-508 507 498 0
-508 -507 -498 0
508 -507 498 0
508 507 -498 0
-509 508 499 0
-509 -508 -499 0
509 -508 499 0
509 508 -499 0
-510 509 500 0
-510 -509 -500 0
510 -509 500 0
510 509 -500 0
-511 510 501 0
-511 -510 -501 0
511 -510 501 0
511 510 -501 0
-512 511 502 0
-512 -511 -502 0
512 -511 502 0
512 511 -502 0
-512 0
-513 1 0
-513 47 0
-513 115 0
513 -1 -47 -115 0
-514 5 0
-514 53 0
-514 121 0
514 -5 -53 -121 0
-515 9 0
-515 59 0
-515 127 0
515 -9 -59 -127 0
-516 13 0
-516 65 0
-516 133 0
516 -13 -65 -133 0
-517 17 0
-517 71 0
-517 139 0
517 -17 -71 -139 0
-518 21 0
-518 77 0
-518 145 0
518 -21 -77 -145 0
-519 25 0
-519 83 0
-519 151 0
519 -25 -83 -151 0
-520 29 0
-520 89 0
-520 157 0
520 -29 -89 -157 0
-521 33 0
-521 95 0
-521 163 0
521 -33 -95 -163 0
-522 37 0
-522 101 0
-522 169 0
522 -37 -101 -169 0
-523 41 0
-523 107 0
-523 175 0
523 -41 -107 -175 0
-524 513 514 0
-524 -513 -514 0
524 -513 514 0
524 513 -514 0
-525 524 515 0
-525 -524 -515 0
525 -524 515 0
525 524 -515 0
-526 525 516 0
-526 -525 -516 0
526 -525 516 0
526 525 -516 0
-527 526 517 0
-527 -526 -517 0
527 -526 517 0
527 526 -517 0
-528 527 518 0
-528 -527 -518 0
528 -527 518 0
528 527 -518 0
-529 528 519 0
-529 -528 -519 0
529 -528 519 0
529 528 -519 0
-530 529 520 0
-530 -529 -520 0
530 -529 520 0
530 529 -520 0
-531 530 521 0
-531 -530 -521 0
531 -530 521 0
531 530 -521 0
-532 531 522 0
-532 -531 -522 0
532 -531 522 0
532 531 -522 0
-533 532 523 0
-533 -532 -523 0
533 -532 523 0
533 532 -523 0
-533 0
-534 1 0
-534 47 0
-534 116 0
534 -1 -47 -116 0
-535 5 0
-535 53 0
-535 122 0
535 -5 -53 -122 0
-536 9 0
-536 59 0
-536 128 0
536 -9 -59 -128 0
-537 13 0
-537 65 0
-537 134 0
537 -13 -65 -134 0
-538 17 0
-538 71 0
-538 140 0
538 -17 -71 -140 0
-539 21 0
-539 77 0
-539 146 0
539 -21 -77 -146 0
-540 25 0
-540 83 0
-540 152 0
540 -25 -83 -152 0
-541 29 0
-541 89 0
-541 158 0
541 -29 -89 -158 0
-542 33 0
-542 95 0
-542 164 0
542 -33 -95 -164 0
-543 37 0
-543 101 0
-543 170 0
543 -37 -101 -170 0
-544 41 0
-544 107 0
-544 176 0
544 -41 -107 -176 0
-545 534 535 0
-545 -534 -535 0
545 -534 535 0
545 534 -535 0
-546 545 536 0
-546 -545 -536 0
546 -545 536 0
546 545 -536 0
-547 546 537 0
-547 -546 -537 0
547 -546 537 0
547 546 -537 0
-548 547 538 0
-548 -547 -538 0
548 -547 538 0
548 547 -538 0
-549 548 539 0
-549 -548 -539 0
549 -548 539 0
549 548 -539 0
-550 549 540 0
-550 -549 -540 0
550 -549 540 0
550 549 -540 0
-551 550 541 0
-551 -550 -541 0
551 -550 541 0
551 550 -541 0
-552 551 542 0
-552 -551 -542 0
552 -551 542 0
552 551 -542 0
-553 552 543 0
-553 -552 -543 0
553 -552 543 0
553 552 -543 0
-554 553 544 0
-554 -553 -544 0
554 -553 544 0
554 553 -544 0
-554 0
-555 1 0
-555 48 0
-555 111 0
555 -1 -48 -111 0
-556 5 0
-556 54 0
-556 117 0
556 -5 -54 -117 0
-557 9 0
-557 60 0
-557 123 0
557 -9 -60 -123 0
-558 13 0
-558 66 0
-558 129 0
558 -13 -66 -129 0
-559 17 0
-559 72 0
-559 135 0
559 -17 -72 -135 0
-560 21 0
-560 78 0
-560 141 0
560 -21 -78 -141 0
-561 25 0
-561 84 0
-561 147 0
561 -25 -84 -147 0
-562 29 0
-562 90 0
-562 153 0
562 -29 -90 -153 0
-563 33 0
-563 96 0
-563 159 0
563 -33 -96 -159 0
-564 37 0
-564 102 0
-564 165 0
564 -37 -102 -165 0
-565 41 0
-565 108 0
-565 171 0
565 -41 -108 -171 0
-566 555 556 0
-566 -555 -556 0
566 -555 556 0
566 555 -556 0
-567 566 557 0
-567 -566 -557 0
567 -566 557 0
567 566 -557 0
-568 567 558 0
-568 -567 -558 0
568 -567 558 0
568 567 -558 0
-569 568 559 0
-569 -568 -559 0
569 -568 559 0
569 568 -559 0
-570 569 560 0
-570 -569 -560 0
570 -569 560 0
570 569 -560 0
-571 570 561 0
-571 -570 -561 0
571 -570 561 0
571 570 -561 0
-572 571 562 0
-572 -571 -562 0
572 -571 562 0
572 571 -562 0
-573 572 563 0
-573 -572 -563 0
573 -572 563 0
573 572 -563 0
-574 573 564 0
-574 -573 -564 0
574 -573 564 0
574 573 -564 0
-575 574 565 0
-575 -574 -565 0
575 -574 565 0
575 574 -565 0
-575 0
-576 1 0
-576 48 0
-576 112 0
576 -1 -48 -112 0
-577 5 0
-577 54 0
-577 118 0
577 -5 -54 -118 0
-578 9 0
-578 60 0
-578 124 0
578 -9 -60 -124 0
-579 13 0
-579 66 0
-579 130 0
579 -13 -66 -130 0
-580 17 0
-580 72 0
-580 136 0
580 -17 -72 -136 0
-581 21 0
-581 78 0
-581 142 0
581 -21 -78 -142 0
-582 25 0
-582 84 0
-582 148 0
582 -25 -84 -148 0
-583 29 0
-583 90 0
-583 154 0
583 -29 -90 -154 0
-584 33 0
-584 96 0
-584 160 0
584 -33 -96 -160 0
-585 37 0
-585 102 0
-585 166 0
585 -37 -102 -166 0
-586 41 0
-586 108 0
-586 172 0
586 -41 -108 -172 0
-587 576 577 0
-587 -576 -577 0
587 -576 577 0
587 576 -577 0
-588 587 578 0
-588 -587 -578 0
588 -587 578 0
588 587 -578 0
-589 588 579 0
-589 -588 -579 0
589 -588 579 0
589 588 -579 0
-590 589 580 0
-590 -589 -580 0
590 -589 580 0
590 589 -580 0
-591 590 581 0
-591 -590 -581 0
591 -590 581 0
591 590 -581 0
-592 591 582 0
-592 -591 -582 0
592 -591 582 0
592 591 -582 0
-593 592 583 0
-593 -592 -583 0
593 -592 583 0
593 592 -583 0
-594 593 584 0
-594 -593 -584 0
594 -593 584 0
594 593 -584 0
-595 594 585 0
-595 -594 -585 0
595 -594 585 0
595 594 -585 0
-596 595 586 0
-596 -595 -586 0
596 -595 586 0
596 595 -586 0
-596 0
-597 1 0
-597 48 0
-597 113 0
597 -1 -48 -113 0
-598 5 0
-598 54 0
-598 119 0
598 -5 -54 -119 0
-599 9 0
-599 60 0
-599 125 0
599 -9 -60 -125 0
-600 13 0
-600 66 0
-600 131 0
600 -13 -66 -131 0
-601 17 0
-601 72 0
-601 137 0
601 -17 -72 -137 0
-602 21 0
-602 78 0
-602 143 0
602 -21 -78 -143 0
-603 25 0
-603 84 0
-603 149 0
603 -25 -84 -149 0
-604 29 0
-604 90 0
-604 155 0
604 -29 -90 -155 0
-605 33 0
-605 96 0
-605 161 0
605 -33 -96 -161 0
-606 37 0
-606 102 0
-606 167 0
606 -37 -102 -167 0
-607 41 0
-607 108 0
-607 173 0
607 -41 -108 -173 0
-608 597 598 0
-608 -597 -598 0
608 -597 598 0
608 597 -598 0
-609 608 599 0
-609 -608 -599 0
609 -608 599 0
609 608 -599 0
-610 609 600 0
-610 -609 -600 0
610 -609 600 0
610 609 -600 0
-611 610 601 0
-611 -610 -601 0
611 -610 601 0
611 610 -601 0
-612 611 602 0
-612 -611 -602 0
612 -611 602 0
612 611 -602 0
-613 612 603 0
-613 -612 -603 0
613 -612 603 0
613 612 -603 0
-614 613 604 0
-614 -613 -604 0
614 -613 604 0
614 613 -604 0
-615 614 605 0
-615 -614 -605 0
615 -614 605 0
615 614 -605 0
-616 615 606 0
-616 -615 -606 0
616 -615 606 0
616 615 -606 0
-617 616 607 0
-617 -616 -607 0
617 -616 607 0
617 616 -607 0
-617 0
-618 1 0
-618 48 0
-618 114 0
618 -1 -48 -114 0
-619 5 0
-619 54 0
-619 120 0
619 -5 -54 -120 0
-620 9 0
-620 60 0
-620 126 0
620 -9 -60 -126 0
-621 13 0
-621 66 0
-621 132 0
621 -13 -66 -132 0
-622 17 0
-622 72 0
-622 138 0
622 -17 -72 -138 0
-623 21 0
-623 78 0
-623 144 0
623 -21 -78 -144 0
-624 25 0
-624 84 0
-624 150 0
624 -25 -84 -150 0
-625 29 0
-625 90 0
-625 156 0
625 -29 -90 -156 0
-626 33 0
-626 96 0
-626 162 0
626 -33 -96 -162 0
-627 37 0
-627 102 0
-627 168 0
627 -37 -102 -168 0
-628 41 0
-628 108 0
-628 174 0
628 -41 -108 -174 0
-629 618 619 0
-629 -618 -619 0
629 -618 619 0
629 618 -619 0
-630 629 620 0
-630 -629 -620 0
630 -629 620 0
630 629 -620 0
-631 630 621 0
-631 -630 -621 0
631 -630 621 0
631 630 -621 0
-632 631 622 0
-632 -631 -622 0
632 -631 622 0
632 631 -622 0
-633 632 623 0
-633 -632 -623 0
633 -632 623 0
633 632 -623 0
-634 633 624 0
-634 -633 -624 0
634 -633 624 0
634 633 -624 0
-635 634 625 0
-635 -634 -625 0
635 -634 625 0
635 634 -625 0
-636 635 626 0
-636 -635 -626 0
636 -635 626 0
636 635 -626 0
-637 636 627 0
-637 -636 -627 0
637 -636 627 0
637 636 -627 0
-638 637 628 0
-638 -637 -628 0
638 -637 628 0
638 637 -628 0
-638 0
-639 1 0
-639 48 0
-639 115 0
639 -1 -48 -115 0
-640 5 0
-640 54 0
-640 121 0
640 -5 -54 -121 0
-641 9 0
-641 60 0
-641 127 0
641 -9 -60 -127 0
-642 13 0
-642 66 0
-642 133 0
642 -13 -66 -133 0
-643 17 0
-643 72 0
-643 139 0
643 -17 -72 -139 0
-644 21 0
-644 78 0
-644 145 0
644 -21 -78 -145 0
-645 25 0
-645 84 0
-645 151 0
645 -25 -84 -151 0
-646 29 0
-646 90 0
-646 157 0
646 -29 -90 -157 0
-647 33 0
-647 96 0
-647 163 0
647 -33 -96 -163 0
-648 37 0
-648 102 0
-648 169 0
648 -37 -102 -169 0
-649 41 0
-649 108 0
-649 175 0
649 -41 -108 -175 0
-650 639 640 0
-650 -639 -640 0
650 -639 640 0
650 639 -640 0
-651 650 641 0
-651 -650 -641 0
651 -650 641 0
651 650 -641 0
-652 651 642 0
-652 -651 -642 0
652 -651 642 0
652 651 -642 0
-653 652 643 0
-653 -652 -643 0
653 -652 643 0
653 652 -643 0
-654 653 644 0
-654 -653 -644 0
654 -653 644 0
654 653 -644 0
-655 654 645 0
-655 -654 -645 0
655 -654 645 0
655 654 -645 0
-656 655 646 0
-656 -655 -646 0
656 -655 646 0
656 655 -646 0
-657 656 647 0
-657 -656 -647 0
657 -656 647 0
657 656 -647 0
-658 657 648 0
-658 -657 -648 0
658 -657 648 0
658 657 -648 0
-659 658 649 0
-659 -658 -649 0
659 -658 649 0
659 658 -649 0
-659 0
-660 1 0
-660 48 0
-660 116 0
660 -1 -48 -116 0
-661 5 0
-661 54 0
-661 122 0
661 -5 -54 -122 0
-662 9 0
-662 60 0
-662 128 0
662 -9 -60 -128 0
-663 13 0
-663 66 0
-663 134 0
663 -13 -66 -134 0
-664 17 0
-664 72 0
-664 140 0
664 -17 -72 -140 0
-665 21 0
-665 78 0
-665 146 0
665 -21 -78 -146 0
-666 25 0
-666 84 0
-666 152 0
666 -25 -84 -152 0
-667 29 0
-667 90 0
-667 158 0
667 -29 -90 -158 0
-668 33 0
-668 96 0
-668 164 0
668 -33 -96 -164 0
-669 37 0
-669 102 0
-669 170 0
669 -37 -102 -170 0
-670 41 0
-670 108 0
-670 176 0
670 -41 -108 -176 0
-671 660 661 0
-671 -660 -661 0
671 -660 661 0
671 660 -661 0
-672 671 662 0
-672 -671 -662 0
672 -671 662 0
672 671 -662 0
-673 672 663 0
-673 -672 -663 0
673 -672 663 0
673 672 -663 0
-674 673 664 0
-674 -673 -664 0
674 -673 664 0
674 673 -664 0
-675 674 665 0
-675 -674 -665 0
675 -674 665 0
675 674 -665 0
-676 675 666 0
-676 -675 -666 0
676 -675 666 0
676 675 -666 0
-677 676 667 0
-677 -676 -667 0
677 -676 667 0
677 676 -667 0
-678 677 668 0
-678 -677 -668 0
678 -677 668 0
678 677 -668 0
-679 678 669 0
-679 -678 -669 0
679 -678 669 0
679 678 -669 0
-680 679 670 0
-680 -679 -670 0
680 -679 670 0
680 679 -670 0
-680 0
-681 1 0
-681 49 0
-681 111 0
681 -1 -49 -111 0
-682 5 0
-682 55 0
-682 117 0
682 -5 -55 -117 0
-683 9 0
-683 61 0
-683 123 0
683 -9 -61 -123 0
-684 13 0
-684 67 0
-684 129 0
684 -13 -67 -129 0
-685 17 0
-685 73 0
-685 135 0
685 -17 -73 -135 0
-686 21 0
-686 79 0
-686 141 0
686 -21 -79 -141 0
-687 25 0
-687 85 0
-687 147 0
687 -25 -85 -147 0
-688 29 0
-688 91 0
-688 153 0
688 -29 -91 -153 0
-689 33 0
-689 97 0
-689 159 0
689 -33 -97 -159 0
-690 37 0
-690 103 0
-690 165 0
690 -37 -103 -165 0
-691 41 0
-691 109 0
-691 171 0
691 -41 -109 -171 0
-692 681 682 0
-692 -681 -682 0
692 -681 682 0
692 681 -682 0
-693 692 683 0
-693 -692 -683 0
693 -692 683 0
693 692 -683 0
-694 693 684 0
-694 -693 -684 0
694 -693 684 0
694 693 -684 0
-695 694 685 0
-695 -694 -685 0
695 -694 685 0
695 694 -685 0
-696 695 686 0
-696 -695 -686 0
696 -695 686 0
696 695 -686 0
-697 696 687 0
-697 -696 -687 0
697 -696 687 0
697 696 -687 0
-698 697 688 0
-698 -697 -688 0
698 -697 688 0
698 697 -688 0
-699 698 689 0
-699 -698 -689 0
699 -698 689 0
699 698 -689 0
-700 699 690 0
-700 -699 -690 0
700 -699 690 0
700 699 -690 0
-701 700 691 0
-701 -700 -691 0
701 -700 691 0
701 700 -691 0
-701 0
-702 1 0
-702 49 0
-702 112 0
702 -1 -49 -112 0
-703 5 0
-703 55 0
-703 118 0
703 -5 -55 -118 0
-704 9 0
-704 61 0
-704 124 0
704 -9 -61 -124 0
-705 13 0
-705 67 0
-705 130 0
705 -13 -67 -130 0
-706 17 0
-706 73 0
-706 136 0
706 -17 -73 -136 0
-707 21 0
-707 79 0
-707 142 0
707 -21 -79 -142 0
-708 25 0
-708 85 0
-708 148 0
708 -25 -85 -148 0
-709 29 0
-709 91 0
-709 154 0
709 -29 -91 -154 0
-710 33 0
-710 97 0
-710 160 0
710 -33 -97 -160 0
-711 37 0
-711 103 0
-711 166 0
711 -37 -103 -166 0
-712 41 0
-712 109 0
-712 172 0
712 -41 -109 -172 0
-713 702 703 0
-713 -702 -703 0
713 -702 703 0
713 702 -703 0
-714 713 704 0
-714 -713 -704 0
714 -713 704 0
714 713 -704 0
-715 714 705 0
-715 -714 -705 0
715 -714 705 0
715 714 -705 0
-716 715 706 0
-716 -715 -706 0
716 -715 706 0
716 715 -706 0
-717 716 707 0
-717 -716 -707 0
717 -716 707 0
717 716 -707 0
-718 717 708 0
-718 -717 -708 0
718 -717 708 0
718 717 -708 0
-719 718 709 0
-719 -718 -709 0
719 -718 709 0
719 718 -709 0
-720 719 710 0
-720 -719 -710 0
720 -719 710 0
720 719 -710 0
-721 720 711 0
-721 -720 -711 0
721 -720 711 0
721 720 -711 0
-722 721 712 0
-722 -721 -712 0
722 -721 712 0
722 721 -712 0
-722 0
-723 1 0
-723 49 0
-723 113 0
723 -1 -49 -113 0
-724 5 0
-724 55 0
-724 119 0
724 -5 -55 -119 0
-725 9 0
-725 61 0
-725 125 0
725 -9 -61 -125 0
-726 13 0
-726 67 0
-726 131 0
726 -13 -67 -131 0
-727 17 0
-727 73 0
-727 137 0
727 -17 -73 -137 0
-728 21 0
-728 79 0
-728 143 0
728 -21 -79 -143 0
-729 25 0
-729 85 0
-729 149 0
729 -25 -85 -149 0
-730 29 0
-730 91 0
-730 155 0
730 -29 -91 -155 0
-731 33 0
-731 97 0
-731 161 0
731 -33 -97 -161 0
-732 37 0
-732 103 0
-732 167 0
732 -37 -103 -167 0
-733 41 0
-733 109 0
-733 173 0
733 -41 -109 -173 0
-734 723 724 0
-734 -723 -724 0
734 -723 724 0
734 723 -724 0
-735 734 725 0
-735 -734 -725 0
735 -734 725 0
735 734 -725 0
-736 735 726 0
-736 -735 -726 0
736 -735 726 0
736 735 -726 0
-737 736 727 0
-737 -736 -727 0
737 -736 727 0
737 736 -727 0
-738 737 728 0
-738 -737 -728 0
738 -737 728 0
738 737 -728 0
-739 738 729 0
-739 -738 -729 0
739 -738 729 0
739 738 -729 0
-740 739 730 0
-740 -739 -730 0
740 -739 730 0
740 739 -730 0
-741 740 731 0
-741 -740 -731 0
741 -740 731 0
741 740 -731 0
-742 741 732 0
-742 -741 -732 0
742 -741 732 0
742 741 -732 0
-743 742 733 0
-743 -742 -733 0
743 -742 733 0
743 742 -733 0
-743 0
-744 1 0
-744 49 0
-744 114 0
744 -1 -49 -114 0
-745 5 0
-745 55 0
-745 120 0
745 -5 -55 -120 0
-746 9 0
-746 61 0
-746 126 0
746 -9 -61 -126 0
-747 13 0
-747 67 0
-747 132 0
747 -13 -67 -132 0
-748 17 0
-748 73 0
-748 138 0
748 -17 -73 -138 0
-749 21 0
-749 79 0
-749 144 0
749 -21 -79 -144 0
-750 25 0
-750 85 0
-750 150 0
750 -25 -85 -150 0
-751 29 0
-751 91 0
-751 156 0
751 -29 -91 -156 0
-752 33 0
-752 97 0
-752 162 0
752 -33 -97 -162 0
-753 37 0
-753 103 0
-753 168 0
753 -37 -103 -168 0
-754 41 0
-754 109 0
-754 174 0
754 -41 -109 -174 0
-755 744 745 0
-755 -744 -745 0
755 -744 745 0
755 744 -745 0
-756 755 746 0
-756 -755 -746 0
756 -755 746 0
756 755 -746 0
-757 756 747 0
-757 -756 -747 0
757 -756 747 0
757 756 -747 0
-758 757 748 0
-758 -757 -748 0
758 -757 748 0
758 757 -748 0
-759 758 749 0
-759 -758 -749 0
759 -758 749 0
759 758 -749 0
-760 759 750 0
-760 -759 -750 0
760 -759 750 0
760 759 -750 0
-761 760 751 0
-761 -760 -751 0
761 -760 751 0
761 760 -751 0
-762 761 752 0
-762 -761 -752 0
762 -761 752 0
762 761 -752 0
-763 762 753 0
-763 -762 -753 0
763 -762 753 0
763 762 -753 0
-764 763 754 0
-764 -763 -754 0
764 -763 754 0
764 763 -754 0
-764 0
-765 1 0
-765 49 0
-765 115 0
765 -1 -49 -115 0
-766 5 0
-766 55 0
-766 121 0
766 -5 -55 -121 0
-767 9 0
-767 61 0
-767 127 0
767 -9 -61 -127 0
-768 13 0
-768 67 0
-768 133 0
768 -13 -67 -133 0
-769 17 0
-769 73 0
-769 139 0
769 -17 -73 -139 0
-770 21 0
-770 79 0
-770 145 0
770 -21 -79 -145 0
-771 25 0
-771 85 0
-771 151 0
771 -25 -85 -151 0
-772 29 0
-772 91 0
-772 157 0
772 -29 -91 -157 0
-773 33 0
-773 97 0
-773 163 0
773 -33 -97 -163 0
-774 37 0
-774 103 0
-774 169 0
774 -37 -103 -169 0
-775 41 0
-775 109 0
-775 175 0
775 -41 -109 -175 0
-776 765 766 0
-776 -765 -766 0
776 -765 766 0
776 765 -766 0
-777 776 767 0
-777 -776 -767 0
777 -776 767 0
777 776 -767 0
-778 777 768 0
-778 -777 -768 0
778 -777 768 0
778 777 -768 0
-779 778 769 0
-779 -778 -769 0
779 -778 769 0
779 778 -769 0
-780 779 770 0
-780 -779 -770 0
780 -779 770 0
780 779 -770 0
-781 780 771 0
-781 -780 -771 0
781 -780 771 0
781 780 -771 0
-782 781 772 0
-782 -781 -772 0
782 -781 772 0
782 781 -772 0
-783 782 773 0
-783 -782 -773 0
783 -782 773 0
783 782 -773 0
-784 783 774 0
-784 -783 -774 0
784 -783 774 0
784 783 -774 0
-785 784 775 0
-785 -784 -775 0
785 -784 775 0
785 784 -775 0
-785 0
-786 1 0
-786 49 0
-786 116 0
786 -1 -49 -116 0
-787 5 0
-787 55 0
-787 122 0
787 -5 -55 -122 0
-788 9 0
-788 61 0
-788 128 0
788 -9 -61 -128 0
-789 13 0
-789 67 0
-789 134 0
789 -13 -67 -134 0
-790 17 0
-790 73 0
-790 140 0
790 -17 -73 -140 0
-791 21 0
-791 79 0
-791 146 0
791 -21 -79 -146 0
-792 25 0
-792 85 0
-792 152 0
792 -25 -85 -152 0
-793 29 0
-793 91 0
-793 158 0
793 -29 -91 -158 0
-794 33 0
-794 97 0
-794 164 0
794 -33 -97 -164 0
-795 37 0
-795 103 0
-795 170 0
795 -37 -103 -170 0
-796 41 0
-796 109 0
-796 176 0
796 -41 -109 -176 0
-797 786 787 0
-797 -786 -787 0
797 -786 787 0
797 786 -787 0
-798 797 788 0
-798 -797 -788 0
798 -797 788 0
798 797 -788 0
-799 798 789 0
-799 -798 -789 0
799 -798 789 0
799 798 -789 0
-800 799 790 0
-800 -799 -790 0
800 -799 790 0
800 799 -790 0
-801 800 791 0
-801 -800 -791 0
801 -800 791 0
801 800 -791 0
-802 801 792 0
-802 -801 -792 0
802 -801 792 0
802 801 -792 0
-803 802 793 0
-803 -802 -793 0
803 -802 793 0
803 802 -793 0
-804 803 794 0
-804 -803 -794 0
804 -803 794 0
804 803 -794 0
-805 804 795 0
-805 -804 -795 0
805 -804 795 0
805 804 -795 0
-806 805 796 0
-806 -805 -796 0
806 -805 796 0
806 805 -796 0
-806 0
-807 1 0
-807 50 0
-807 111 0
807 -1 -50 -111 0
-808 5 0
-808 56 0
-808 117 0
808 -5 -56 -117 0
-809 9 0
-809 62 0
-809 123 0
809 -9 -62 -123 0
-810 13 0
-810 68 0
-810 129 0
810 -13 -68 -129 0
-811 17 0
-811 74 0
-811 135 0
811 -17 -74 -135 0
-812 21 0
-812 80 0
-812 141 0
812 -21 -80 -141 0
-813 25 0
-813 86 0
-813 147 0
813 -25 -86 -147 0
-814 29 0
-814 92 0
-814 153 0
814 -29 -92 -153 0
-815 33 0
-815 98 0
-815 159 0
815 -33 -98 -159 0
-816 37 0
-816 104 0
-816 165 0
816 -37 -104 -165 0
-817 41 0
-817 110 0
-817 171 0
817 -41 -110 -171 0
-818 807 808 0
-818 -807 -808 0
818 -807 808 0
818 807 -808 0
-819 818 809 0
-819 -818 -809 0
819 -818 809 0
819 818 -809 0
-820 819 810 0
-820 -819 -810 0
820 -819 810 0
820 819 -810 0
-821 820 811 0
-821 -820 -811 0
821 -820 811 0
821 820 -811 0
-822 821 812 0
-822 -821 -812 0
822 -821 812 0
822 821 -812 0
-823 822 813 0
-823 -822 -813 0
823 -822 813 0
823 822 -813 0
-824 823 814 0
-824 -823 -814 0
824 -823 814 0
824 823 -814 0
-825 824 815 0
-825 -824 -815 0
825 -824 815 0
825 824 -815 0
-826 825 816 0
-826 -825 -816 0
826 -825 816 0
826 825 -816 0
-827 826 817 0
-827 -826 -817 0
827 -826 817 0
827 826 -817 0
-827 0
-828 1 0
-828 50 0
-828 112 0
828 -1 -50 -112 0
-829 5 0
-829 56 0
-829 118 0
829 -5 -56 -118 0
-830 9 0
-830 62 0
-830 124 0
830 -9 -62 -124 0
-831 13 0
-831 68 0
-831 130 0
831 -13 -68 -130 0
-832 17 0
-832 74 0
-832 136 0
832 -17 -74 -136 0
-833 21 0
-833 80 0
-833 142 0
833 -21 -80 -142 0
-834 25 0
-834 86 0
-834 148 0
834 -25 -86 -148 0
-835 29 0
-835 92 0
-835 154 0
835 -29 -92 -154 0
-836 33 0
-836 98 0
-836 160 0
836 -33 -98 -160 0
-837 37 0
-837 104 0
-837 166 0
837 -37 -104 -166 0
-838 41 0
-838 110 0
-838 172 0
838 -41 -110 -172 0
-839 828 829 0
-839 -828 -829 0
839 -828 829 0
839 828 -829 0
-840 839 830 0
-840 -839 -830 0
840 -839 830 0
840 839 -830 0
-841 840 831 0
-841 -840 -831 0
841 -840 831 0
841 840 -831 0
-842 841 832 0
-842 -841 -832 0
842 -841 832 0
842 841 -832 0
-843 842 833 0
-843 -842 -833 0
843 -842 833 0
843 842 -833 0
-844 843 834 0
-844 -843 -834 0
844 -843 834 0
844 843 -834 0
-845 844 835 0
-845 -844 -835 0
845 -844 835 0
845 844 -835 0
-846 845 836 0
-846 -845 -836 0
846 -845 836 0
846 845 -836 0
-847 846 837 0
-847 -846 -837 0
847 -846 837 0
847 846 -837 0
-848 847 838 0
-848 -847 -838 0
848 -847 838 0
848 847 -838 0
-848 0
-849 1 0
-849 50 0
-849 113 0
849 -1 -50 -113 0
-850 5 0
-850 56 0
-850 119 0
850 -5 -56 -119 0
-851 9 0
-851 62 0
-851 125 0
851 -9 -62 -125 0
-852 13 0
-852 68 0
-852 131 0
852 -13 -68 -131 0
-853 17 0
-853 74 0
-853 137 0
853 -17 -74 -137 0
-854 21 0
-854 80 0
-854 143 0
854 -21 -80 -143 0
-855 25 0
-855 86 0
-855 149 0
855 -25 -86 -149 0
-856 29 0
-856 92 0
-856 155 0
856 -29 -92 -155 0
-857 33 0
-857 98 0
-857 161 0
857 -33 -98 -161 0
-858 37 0
-858 104 0
-858 167 0
858 -37 -104 -167 0
-859 41 0
-859 110 0
-859 173 0
859 -41 -110 -173 0
-860 849 850 0
-860 -849 -850 0
860 -849 850 0
860 849 -850 0
-861 860 851 0
-861 -860 -851 0
861 -860 851 0
861 860 -851 0
-862 861 852 0
-862 -861 -852 0
862 -861 852 0
862 861 -852 0
-863 862 853 0
-863 -862 -853 0
863 -862 853 0
863 862 -853 0
-864 863 854 0
-864 -863 -854 0
864 -863 854 0
864 863 -854 0
-865 864 855 0
-865 -864 -855 0
865 -864 855 0
865 864 -855 0
-866 865 856 0
-866 -865 -856 0
866 -865 856 0
866 865 -856 0
-867 866 857 0
-867 -866 -857 0
867 -866 857 0
867 866 -857 0
-868 867 858 0
-868 -867 -858 0
868 -867 858 0
868 867 -858 0
-869 868 859 0
-869 -868 -859 0
869 -868 859 0
869 868 -859 0
-869 0
-870 1 0
-870 50 0
-870 114 0
870 -1 -50 -114 0
-871 5 0
-871 56 0
-871 120 0
871 -5 -56 -120 0
-872 9 0
-872 62 0
-872 126 0
872 -9 -62 -126 0
-873 13 0
-873 68 0
-873 132 0
873 -13 -68 -132 0
-874 17 0
-874 74 0
-874 138 0
874 -17 -74 -138 0
-875 21 0
-875 80 0
-875 144 0
875 -21 -80 -144 0
-876 25 0
-876 86 0
-876 150 0
876 -25 -86 -150 0
-877 29 0
-877 92 0
-877 156 0
877 -29 -92 -156 0
-878 33 0
-878 98 0
-878 162 0
878 -33 -98 -162 0
-879 37 0
-879 104 0
-879 168 0
879 -37 -104 -168 0
-880 41 0
-880 110 0
-880 174 0
880 -41 -110 -174 0
-881 870 871 0
-881 -870 -871 0
881 -870 871 0
881 870 -871 0
-882 881 872 0
-882 -881 -872 0
882 -881 872 0
882 881 -872 0
-883 882 873 0
-883 -882 -873 0
883 -882 873 0
883 882 -873 0
-884 883 874 0
-884 -883 -874 0
884 -883 874 0
884 883 -874 0
-885 884 875 0
-885 -884 -875 0
885 -884 875 0
885 884 -875 0
-886 885 876 0
-886 -885 -876 0
886 -885 876 0
886 885 -876 0
-887 886 877 0
-887 -886 -877 0
887 -886 877 0
887 886 -877 0
-888 887 878 0
-888 -887 -878 0
888 -887 878 0
888 887 -878 0
-889 888 879 0
-889 -888 -879 0
889 -888 879 0
889 888 -879 0
-890 889 880 0
-890 -889 -880 0
890 -889 880 0
890 889 -880 0
-890 0
-891 1 0
-891 50 0
-891 115 0
891 -1 -50 -115 0
-892 5 0
-892 56 0
-892 121 0
892 -5 -56 -121 0
-893 9 0
-893 62 0
-893 127 0
893 -9 -62 -127 0
-894 13 0
-894 68 0
-894 133 0
894 -13 -68 -133 0
-895 17 0
-895 74 0
-895 139 0
895 -17 -74 -139 0
-896 21 0
-896 80 0
-896 145 0
896 -21 -80 -145 0
-897 25 0
-897 86 0
-897 151 0
897 -25 -86 -151 0
-898 29 0
-898 92 0
-898 157 0
898 -29 -92 -157 0
-899 33 0
-899 98 0
-899 163 0
899 -33 -98 -163 0
-900 37 0
-900 104 0
-900 169 0
900 -37 -104 -169 0
-901 41 0
-901 110 0
-901 175 0
901 -41 -110 -175 0
-902 891 892 0
-902 -891 -892 0
902 -891 892 0
902 891 -892 0
-903 902 893 0
-903 -902 -893 0
903 -902 893 0
903 902 -893 0
-904 903 894 0
-904 -903 -894 0
904 -903 894 0
904 903 -894 0
-905 904 895 0
-905 -904 -895 0
905 -904 895 0
905 904 -895 0
-906 905 896 0
-906 -905 -896 0
906 -905 896 0
906 905 -896 0
-907 906 897 0
-907 -906 -897 0
907 -906 897 0
907 906 -897 0
-908 907 898 0
-908 -907 -898 0
908 -907 898 0
908 907 -898 0
-909 908 899 0
-909 -908 -899 0
909 -908 899 0
909 908 -899 0
-910 909 900 0
-910 -909 -900 0
910 -909 900 0
910 909 -900 0
-911 910 901 0
-911 -910 -901 0
911 -910 901 0
911 910 -901 0
-911 0
-912 1 0
-912 50 0
-912 116 0
912 -1 -50 -116 0
-913 5 0
-913 56 0
-913 122 0
913 -5 -56 -122 0
-914 9 0
-914 62 0
-914 128 0
914 -9 -62 -128 0
-915 13 0
-915 68 0
-915 134 0
915 -13 -68 -134 0
-916 17 0
-916 74 0
-916 140 0
916 -17 -74 -140 0
-917 21 0
-917 80 0
-917 146 0
917 -21 -80 -146 0
-918 25 0
-918 86 0
-918 152 0
918 -25 -86 -152 0
-919 29 0
-919 92 0
-919 158 0
919 -29 -92 -158 0
-920 33 0
-920 98 0
-920 164 0
920 -33 -98 -164 0
-921 37 0
-921 104 0
-921 170 0
921 -37 -104 -170 0
-922 41 0
-922 110 0
-922 176 0
922 -41 -110 -176 0
-923 912 913 0
-923 -912 -913 0
923 -912 913 0
923 912 -913 0
-924 923 914 0
-924 -923 -914 0
924 -923 914 0
924 923 -914 0
-925 924 915 0
-925 -924 -915 0
925 -924 915 0
925 924 -915 0
-926 925 916 0
-926 -925 -916 0
926 -925 916 0
926 925 -916 0
-927 926 917 0
-927 -926 -917 0
927 -926 917 0
927 926 -917 0
-928 927 918 0
-928 -927 -918 0
928 -927 918 0
928 927 -918 0
-929 928 919 0
-929 -928 -919 0
929 -928 919 0
929 928 -919 0
-930 929 920 0
-930 -929 -920 0
930 -929 920 0
930 929 -920 0
-931 930 921 0
-931 -930 -921 0
931 -930 921 0
931 930 -921 0
-932 931 922 0
-932 -931 -922 0
932 -931 922 0
932 931 -922 0
-932 0
-933 2 0
-933 45 0
-933 111 0
933 -2 -45 -111 0
-934 6 0
-934 51 0
-934 117 0
934 -6 -51 -117 0
-935 10 0
-935 57 0
-935 123 0
935 -10 -57 -123 0
-936 14 0
-936 63 0
-936 129 0
936 -14 -63 -129 0
-937 18 0
-937 69 0
-937 135 0
937 -18 -69 -135 0
-938 22 0
-938 75 0
-938 141 0
938 -22 -75 -141 0
-939 26 0
-939 81 0
-939 147 0
939 -26 -81 -147 0
-940 30 0
-940 87 0
-940 153 0
940 -30 -87 -153 0
-941 34 0
-941 93 0
-941 159 0
941 -34 -93 -159 0
-942 38 0
-942 99 0
-942 165 0
942 -38 -99 -165 0
-943 42 0
-943 105 0
-943 171 0
943 -42 -105 -171 0
-944 933 934 0
-944 -933 -934 0
944 -933 934 0
944 933 -934 0
-945 944 935 0
-945 -944 -935 0
945 -944 935 0
945 944 -935 0
-946 945 936 0
-946 -945 -936 0
946 -945 936 0
946 945 -936 0
-947 946 937 0
-947 -946 -937 0
947 -946 937 0
947 946 -937 0
-948 947 938 0
-948 -947 -938 0
948 -947 938 0
948 947 -938 0
-949 948 939 0
-949 -948 -939 0
949 -948 939 0
949 948 -939 0
-950 949 940 0
-950 -949 -940 0
950 -949 940 0
950 949 -940 0
-951 950 941 0
-951 -950 -941 0
951 -950 941 0
951 950 -941 0
-952 951 942 0
-952 -951 -942 0
952 -951 942 0
952 951 -942 0
-953 952 943 0
-953 -952 -943 0
953 -952 943 0
953 952 -943 0
-953 0
-954 2 0
-954 45 0
-954 112 0
954 -2 -45 -112 0
-955 6 0
-955 51 0
-955 118 0
955 -6 -51 -118 0
-956 10 0
-956 57 0
-956 124 0
956 -10 -57 -124 0
-957 14 0
-957 63 0
-957 130 0
957 -14 -63 -130 0
-958 18 0
-958 69 0
-958 136 0
958 -18 -69 -136 0
-959 22 0
-959 75 0
-959 142 0
959 -22 -75 -142 0
-960 26 0
-960 81 0
-960 148 0
960 -26 -81 -148 0
-961 30 0
-961 87 0
-961 154 0
961 -30 -87 -154 0
-962 34 0
-962 93 0
-962 160 0
962 -34 -93 -160 0
-963 38 0
-963 99 0
-963 166 0
963 -38 -99 -166 0
-964 42 0
-964 105 0
-964 172 0
964 -42 -105 -172 0
-965 954 955 0
-965 -954 -955 0
965 -954 955 0
965 954 -955 0
-966 965 956 0
-966 -965 -956 0
966 -965 956 0
966 965 -956 0
-967 966 957 0
-967 -966 -957 0
967 -966 957 0
967 966 -957 0
-968 967 958 0
-968 -967 -958 0
968 -967 958 0
968 967 -958 0
-969 968 959 0
-969 -968 -959 0
969 -968 959 0
969 968 -959 0
-970 969 960 0
-970 -969 -960 0
970 -969 960 0
970 969 -960 0
-971 970 961 0
-971 -970 -961 0
971 -970 961 0
971 970 -961 0
-972 971 962 0
-972 -971 -962 0
972 -971 962 0
972 971 -962 0
-973 972 963 0
-973 -972 -963 0
973 -972 963 0
973 972 -963 0
-974 973 964 0
-974 -973 -964 0
974 -973 964 0
974 973 -964 0
-974 0
-975 2 0
-975 45 0
-975 113 0
975 -2 -45 -113 0
-976 6 0
-976 51 0
-976 119 0
976 -6 -51 -119 0
-977 10 0
-977 57 0
-977 125 0
977 -10 -57 -125 0
-978 14 0
-978 63 0
-978 131 0
978 -14 -63 -131 0
-979 18 0
-979 69 0
-979 137 0
979 -18 -69 -137 0
-980 22 0
-980 75 0
-980 143 0
980 -22 -75 -143 0
-981 26 0
-981 81 0
-981 149 0
981 -26 -81 -149 0
-982 30 0
-982 87 0
-982 155 0
982 -30 -87 -155 0
-983 34 0
-983 93 0
-983 161 0
983 -34 -93 -161 0
-984 38 0
-984 99 0
-984 167 0
984 -38 -99 -167 0
-985 42 0
-985 105 0
-985 173 0
985 -42 -105 -173 0
-986 975 976 0
-986 -975 -976 0
986 -975 976 0
986 975 -976 0
-987 986 977 0
-987 -986 -977 0
987 -986 977 0
987 986 -977 0
-988 987 978 0
-988 -987 -978 0
988 -987 978 0
988 987 -978 0
-989 988 979 0
-989 -988 -979 0
989 -988 979 0
989 988 -979 0
-990 989 980 0
-990 -989 -980 0
990 -989 980 0
990 989 -980 0
-991 990 981 0
-991 -990 -981 0
991 -990 981 0
991 990 -981 0
-992 991 982 0
-992 -991 -982 0
992 -991 982 0
992 991 -982 0
-993 992 983 0
-993 -992 -983 0
993 -992 983 0
993 992 -983 0
-994 993 984 0
-994 -993 -984 0
994 -993 984 0
994 993 -984 0
-995 994 985 0
-995 -994 -985 0
995 -994 985 0
995 994 -985 0
-995 0
-996 2 0
-996 45 0
-996 114 0
996 -2 -45 -114 0
-997 6 0
-997 51 0
-997 120 0
997 -6 -51 -120 0
-998 10 0
-998 57 0
-998 126 0
998 -10 -57 -126 0
-999 14 0
-999 63 0
-999 132 0
999 -14 -63 -132 0
-1000 18 0
-1000 69 0
-1000 138 0
1000 -18 -69 -138 0
-1001 22 0
-1001 75 0
-1001 144 0
1001 -22 -75 -144 0
-1002 26 0
-1002 81 0
-1002 150 0
1002 -26 -81 -150 0
-1003 30 0
-1003 87 0
-1003 156 0
1003 -30 -87 -156 0
-1004 34 0
-1004 93 0
-1004 162 0
1004 -34 -93 -162 0
-1005 38 0
-1005 99 0
-1005 168 0
1005 -38 -99 -168 0
-1006 42 0
-1006 105 0
-1006 174 0
1006 -42 -105 -174 0
-1007 996 997 0
-1007 -996 -997 0
1007 -996 997 0
1007 996 -997 0
-1008 1007 998 0
-1008 -1007 -998 0
1008 -1007 998 0
1008 1007 -998 0
-1009 1008 999 0
-1009 -1008 -999 0
1009 -1008 999 0
1009 1008 -999 0
-1010 1009 1000 0
-1010 -1009 -1000 0
1010 -1009 1000 0
1010 1009 -1000 0
-1011 1010 1001 0
-1011 -1010 -1001 0
1011 -1010 1001 0
1011 1010 -1001 0
-1012 1011 1002 0
-1012 -1011 -1002 0
1012 -1011 1002 0
1012 1011 -1002 0
-1013 1012 1003 0
-1013 -1012 -1003 0
1013 -1012 1003 0
1013 1012 -1003 0
-1014 1013 1004 0
-1014 -1013 -1004 0
1014 -1013 1004 0
1014 1013 -1004 0
-1015 1014 1005 0
-1015 -1014 -1005 0
1015 -1014 1005 0
1015 1014 -1005 0
-1016 1015 1006 0
-1016 -1015 -1006 0
1016 -1015 1006 0
1016 1015 -1006 0
-1016 0
-1017 2 0
-1017 45 0
-1017 115 0
1017 -2 -45 -115 0
-1018 6 0
-1018 51 0
-1018 121 0
1018 -6 -51 -121 0
-1019 10 0
-1019 57 0
-1019 127 0
1019 -10 -57 -127 0
-1020 14 0
-1020 63 0
-1020 133 0
1020 -14 -63 -133 0
-1021 18 0
-1021 69 0
-1021 139 0
1021 -18 -69 -139 0
-1022 22 0
-1022 75 0
-1022 145 0
1022 -22 -75 -145 0
-1023 26 0
-1023 81 0
-1023 151 0
1023 -26 -81 -151 0
-1024 30 0
-1024 87 0
-1024 157 0
1024 -30 -87 -157 0
-1025 34 0
-1025 93 0
-1025 163 0
1025 -34 -93 -163 0
-1026 38 0
-1026 99 0
-1026 169 0
1026 -38 -99 -169 0
-1027 42 0
-1027 105 0
-1027 175 0
1027 -42 -105 -175 0
-1028 1017 1018 0
-1028 -1017 -1018 0
1028 -1017 1018 0
1028 1017 -1018 0
-1029 1028 1019 0
-1029 -1028 -1019 0
1029 -1028 1019 0
1029 1028 -1019 0
-1030 1029 1020 0
-1030 -1029 -1020 0
1030 -1029 1020 0
1030 1029 -1020 0
-1031 1030 1021 0
-1031 -1030 -1021 0
1031 -1030 1021 0
1031 1030 -1021 0
-1032 1031 1022 0
-1032 -1031 -1022 0
1032 -1031 1022 0
1032 1031 -1022 0
-1033 1032 1023 0
-1033 -1032 -1023 0
1033 -1032 1023 0
1033 1032 -1023 0
-1034 1033 1024 0
-1034 -1033 -1024 0
1034 -1033 1024 0
1034 1033 -1024 0
-1035 1034 1025 0
-1035 -1034 -1025 0
1035 -1034 1025 0
1035 1034 -1025 0
-1036 1035 1026 0
-1036 -1035 -1026 0
1036 -1035 1026 0
1036 1035 -1026 0
-1037 1036 1027 0
-1037 -1036 -1027 0
1037 -1036 1027 0
1037 1036 -1027 0
-1037 0
-1038 2 0
-1038 45 0
-1038 116 0
1038 -2 -45 -116 0
-1039 6 0
-1039 51 0
-1039 122 0
1039 -6 -51 -122 0
-1040 10 0
-1040 57 0
-1040 128 0
1040 -10 -57 -128 0
-1041 14 0
-1041 63 0
-1041 134 0
1041 -14 -63 -134 0
-1042 18 0
-1042 69 0
-1042 140 0
1042 -18 -69 -140 0
-1043 22 0
-1043 75 0
-1043 146 0
1043 -22 -75 -146 0
-1044 26 0
-1044 81 0
-1044 152 0
1044 -26 -81 -152 0
-1045 30 0
-1045 87 0
-1045 158 0
1045 -30 -87 -158 0
-1046 34 0
-1046 93 0
-1046 164 0
1046 -34 -93 -164 0
-1047 38 0
-1047 99 0
-1047 170 0
1047 -38 -99 -170 0
-1048 42 0
-1048 105 0
-1048 176 0
1048 -42 -105 -176 0
-1049 1038 1039 0
-1049 -1038 -1039 0
1049 -1038 1039 0
1049 1038 -1039 0
-1050 1049 1040 0
-1050 -1049 -1040 0
1050 -1049 1040 0
1050 1049 -1040 0
-1051 1050 1041 0
-1051 -1050 -1041 0
1051 -1050 1041 0
1051 1050 -1041 0
-1052 1051 1042 0
-1052 -1051 -1042 0
1052 -1051 1042 0
1052 1051 -1042 0
-1053 1052 1043 0
-1053 -1052 -1043 0
1053 -1052 1043 0
1053 1052 -1043 0
-1054 1053 1044 0
-1054 -1053 -1044 0
1054 -1053 1044 0
1054 1053 -1044 0
-1055 1054 1045 0
-1055 -1054 -1045 0
1055 -1054 1045 0
1055 1054 -1045 0
-1056 1055 1046 0
-1056 -1055 -1046 0
1056 -1055 1046 0
1056 1055 -1046 0
-1057 1056 1047 0
-1057 -1056 -1047 0
1057 -1056 1047 0
1057 1056 -1047 0
-1058 1057 1048 0
-1058 -1057 -1048 0
1058 -1057 1048 0
1058 1057 -1048 0
-1058 0
-1059 2 0
-1059 46 0
-1059 111 0
1059 -2 -46 -111 0
-1060 6 0
-1060 52 0
-1060 117 0
1060 -6 -52 -117 0
-1061 10 0
-1061 58 0
-1061 123 0
1061 -10 -58 -123 0
-1062 14 0
-1062 64 0
-1062 129 0
1062 -14 -64 -129 0
-1063 18 0
-1063 70 0
-1063 135 0
1063 -18 -70 -135 0
-1064 22 0
-1064 76 0
-1064 141 0
1064 -22 -76 -141 0
-1065 26 0
-1065 82 0
-1065 147 0
1065 -26 -82 -147 0
-1066 30 0
-1066 88 0
-1066 153 0
1066 -30 -88 -153 0
-1067 34 0
-1067 94 0
-1067 159 0
1067 -34 -94 -159 0
-1068 38 0
-1068 100 0
-1068 165 0
1068 -38 -100 -165 0
-1069 42 0
-1069 106 0
-1069 171 0
1069 -42 -106 -171 0
-1070 1059 1060 0
-1070 -1059 -1060 0
1070 -1059 1060 0
1070 1059 -1060 0
-1071 1070 1061 0
-1071 -1070 -1061 0
1071 -1070 1061 0
1071 1070 -1061 0
-1072 1071 1062 0
-1072 -1071 -1062 0
1072 -1071 1062 0
1072 1071 -1062 0
-1073 1072 1063 0
-1073 -1072 -1063 0
1073 -1072 1063 0
1073 1072 -1063 0
-1074 1073 1064 0
-1074 -1073 -1064 0
1074 -1073 1064 0
1074 1073 -1064 0
-1075 1074 1065 0
-1075 -1074 -1065 0
1075 -1074 1065 0
1075 1074 -1065 0
-1076 1075 1066 0
-1076 -1075 -1066 0
1076 -1075 1066 0
1076 1075 -1066 0
-1077 1076 1067 0
-1077 -1076 -1067 0
1077 -1076 1067 0
1077 1076 -1067 0
-1078 1077 1068 0
-1078 -1077 -1068 0
1078 -1077 1068 0
1078 1077 -1068 0
-1079 1078 1069 0
-1079 -1078 -1069 0
1079 -1078 1069 0
1079 1078 -1069 0
-1079 0
-1080 2 0
-1080 46 0
-1080 112 0
1080 -2 -46 -112 0
-1081 6 0
-1081 52 0
-1081 118 0
1081 -6 -52 -118 0
-1082 10 0
-1082 58 0
-1082 124 0
1082 -10 -58 -124 0
-1083 14 0
-1083 64 0
-1083 130 0
1083 -14 -64 -130 0
-1084 18 0
-1084 70 0
-1084 136 0
1084 -18 -70 -136 0
-1085 22 0
-1085 76 0
-1085 142 0
1085 -22 -76 -142 0
-1086 26 0
-1086 82 0
-1086 148 0
1086 -26 -82 -148 0
-1087 30 0
-1087 88 0
-1087 154 0
1087 -30 -88 -154 0
-1088 34 0
-1088 94 0
-1088 160 0
1088 -34 -94 -160 0
-1089 38 0
-1089 100 0
-1089 166 0
1089 -38 -100 -166 0
-1090 42 0
-1090 106 0
-1090 172 0
1090 -42 -106 -172 0
-1091 1080 1081 0
-1091 -1080 -1081 0
1091 -1080 1081 0
1091 1080 -1081 0
-1092 1091 1082 0
-1092 -1091 -1082 0
1092 -1091 1082 0
1092 1091 -1082 0
-1093 1092 1083 0
-1093 -1092 -1083 0
1093 -1092 1083 0
1093 1092 -1083 0
-1094 1093 1084 0
-1094 -1093 -1084 0
1094 -1093 1084 0
1094 1093 -1084 0
-1095 1094 1085 0
-1095 -1094 -1085 0
1095 -1094 1085 0
1095 1094 -1085 0
-1096 1095 1086 0
-1096 -1095 -1086 0
1096 -1095 1086 0
1096 1095 -1086 0
-1097 1096 1087 0
-1097 -1096 -1087 0
1097 -1096 1087 0
1097 1096 -1087 0
-1098 1097 1088 0
-1098 -1097 -1088 0
1098 -1097 1088 0
1098 1097 -1088 0
-1099 1098 1089 0
-1099 -1098 -1089 0
1099 -1098 1089 0
1099 1098 -1089 0
-1100 1099 1090 0
-1100 -1099 -1090 0
1100 -1099 1090 0
1100 1099 -1090 0
-1100 0
-1101 2 0
-1101 46 0
-1101 113 0
1101 -2 -46 -113 0
-1102 6 0
-1102 52 0
-1102 119 0
1102 -6 -52 -119 0
-1103 10 0
-1103 58 0
-1103 125 0
1103 -10 -58 -125 0
-1104 14 0
-1104 64 0
-1104 131 0
1104 -14 -64 -131 0
-1105 18 0
-1105 70 0
-1105 137 0
1105 -18 -70 -137 0
-1106 22 0
-1106 76 0
-1106 143 0
1106 -22 -76 -143 0
-1107 26 0
-1107 82 0
-1107 149 0
1107 -26 -82 -149 0
-1108 30 0
-1108 88 0
-1108 155 0
1108 -30 -88 -155 0
-1109 34 0
-1109 94 0
-1109 161 0
1109 -34 -94 -161 0
-1110 38 0
-1110 100 0
-1110 167 0
1110 -38 -100 -167 0
-1111 42 0
-1111 106 0
-1111 173 0
1111 -42 -106 -173 0
-1112 1101 1102 0
-1112 -1101 -1102 0
1112 -1101 1102 0
1112 1101 -1102 0
-1113 1112 1103 0
-1113 -1112 -1103 0
1113 -1112 1103 0
1113 1112 -1103 0
-1114 1113 1104 0
-1114 -1113 -1104 0
1114 -1113 1104 0
1114 1113 -1104 0
-1115 1114 1105 0
-1115 -1114 -1105 0
1115 -1114 1105 0
1115 1114 -1105 0
-1116 1115 1106 0
-1116 -1115 -1106 0
1116 -1115 1106 0
1116 1115 -1106 0
-1117 1116 1107 0
-1117 -1116 -1107 0
1117 -1116 1107 0
1117 1116 -1107 0
-1118 1117 1108 0
-1118 -1117 -1108 0
1118 -1117 1108 0
1118 1117 -1108 0
-1119 1118 1109 0
-1119 -1118 -1109 0
1119 -1118 1109 0
1119 1118 -1109 0
-1120 1119 1110 0
-1120 -1119 -1110 0
1120 -1119 1110 0
1120 1119 -1110 0
-1121 1120 1111 0
-1121 -1120 -1111 0
1121 -1120 1111 0
1121 1120 -1111 0
-1121 0
-1122 2 0
-1122 46 0
-1122 114 0
1122 -2 -46 -114 0
-1123 6 0
-1123 52 0
-1123 120 0
1123 -6 -52 -120 0
-1124 10 0
-1124 58 0
-1124 126 0
1124 -10 -58 -126 0
-1125 14 0
-1125 64 0
-1125 132 0
1125 -14 -64 -132 0
-1126 18 0
-1126 70 0
-1126 138 0
1126 -18 -70 -138 0
-1127 22 0
-1127 76 0
-1127 144 0
1127 -22 -76 -144 0
-1128 26 0
-1128 82 0
-1128 150 0
1128 -26 -82 -150 0
-1129 30 0
-1129 88 0
-1129 156 0
1129 -30 -88 -156 0
-1130 34 0
-1130 94 0
-1130 162 0
1130 -34 -94 -162 0
-1131 38 0
-1131 100 0
-1131 168 0
1131 -38 -100 -168 0
-1132 42 0
-1132 106 0
-1132 174 0
1132 -42 -106 -174 0
-1133 1122 1123 0
-1133 -1122 -1123 0
1133 -1122 1123 0
1133 1122 -1123 0
-1134 1133 1124 0
-1134 -1133 -1124 0
1134 -1133 1124 0
1134 1133 -1124 0
-1135 1134 1125 0
-1135 -1134 -1125 0
1135 -1134 1125 0
1135 1134 -1125 0
-1136 1135 1126 0
-1136 -1135 -1126 0
1136 -1135 1126 0
1136 1135 -1126 0
-1137 1136 1127 0
-1137 -1136 -1127 0
1137 -1136 1127 0
1137 1136 -1127 0
-1138 1137 1128 0
-1138 -1137 -1128 0
1138 -1137 1128 0
1138 1137 -1128 0
-1139 1138 1129 0
-1139 -1138 -1129 0
1139 -1138 1129 0
1139 1138 -1129 0
-1140 1139 1130 0
-1140 -1139 -1130 0
1140 -1139 1130 0
1140 1139 -1130 0
-1141 1140 1131 0
-1141 -1140 -1131 0
1141 -1140 1131 0
1141 1140 -1131 0
-1142 1141 1132 0
-1142 -1141 -1132 0
1142 -1141 1132 0
1142 1141 -1132 0
-1142 0
-1143 2 0
-1143 46 0
-1143 115 0
1143 -2 -46 -115 0
-1144 6 0
-1144 52 0
-1144 121 0
1144 -6 -52 -121 0
-1145 10 0
-1145 58 0
-1145 127 0
1145 -10 -58 -127 0
-1146 14 0
-1146 64 0
-1146 133 0
1146 -14 -64 -133 0
-1147 18 0
-1147 70 0
-1147 139 0
1147 -18 -70 -139 0
-1148 22 0
-1148 76 0
-1148 145 0
1148 -22 -76 -145 0
-1149 26 0
-1149 82 0
-1149 151 0
1149 -26 -82 -151 0
-1150 30 0
-1150 88 0
-1150 157 0
1150 -30 -88 -157 0
-1151 34 0
-1151 94 0
-1151 163 0
1151 -34 -94 -163 0
-1152 38 0
-1152 100 0
-1152 169 0
1152 -38 -100 -169 0
-1153 42 0
-1153 106 0
-1153 175 0
1153 -42 -106 -175 0
-1154 1143 1144 0
-1154 -1143 -1144 0
1154 -1143 1144 0
1154 1143 -1144 0
-1155 1154 1145 0
-1155 -1154 -1145 0
1155 -1154 1145 0
1155 1154 -1145 0
-1156 1155 1146 0
-1156 -1155 -1146 0
1156 -1155 1146 0
1156 1155 -1146 0
-1157 1156 1147 0
-1157 -1156 -1147 0
1157 -1156 1147 0
1157 1156 -1147 0
-1158 1157 1148 0
-1158 -1157 -1148 0
1158 -1157 1148 0
1158 1157 -1148 0
-1159 1158 1149 0
-1159 -1158 -1149 0
1159 -1158 1149 0
1159 1158 -1149 0
-1160 1159 1150 0
-1160 -1159 -1150 0
1160 -1159 1150 0
1160 1159 -1150 0
-1161 1160 1151 0
-1161 -1160 -1151 0
1161 -1160 1151 0
1161 1160 -1151 0
-1162 1161 1152 0
-1162 -1161 -1152 0
1162 -1161 1152 0
1162 1161 -1152 0
-1163 1162 1153 0
-1163 -1162 -1153 0
1163 -1162 1153 0
1163 1162 -1153 0
-1163 0
-1164 2 0
-1164 46 0
-1164 116 0
1164 -2 -46 -116 0
-1165 6 0
-1165 52 0
-1165 122 0
1165 -6 -52 -122 0
-1166 10 0
-1166 58 0
-1166 128 0
1166 -10 -58 -128 0
-1167 14 0
-1167 64 0
-1167 134 0
1167 -14 -64 -134 0
-1168 18 0
-1168 70 0
-1168 140 0
1168 -18 -70 -140 0
-1169 22 0
-1169 76 0
-1169 146 0
1169 -22 -76 -146 0
-1170 26 0
-1170 82 0
-1170 152 0
1170 -26 -82 -152 0
-1171 30 0
-1171 88 0
-1171 158 0
1171 -30 -88 -158 0
-1172 34 0
-1172 94 0
-1172 164 0
1172 -34 -94 -164 0
-1173 38 0
-1173 100 0
-1173 170 0
1173 -38 -100 -170 0
-1174 42 0
-1174 106 0
-1174 176 0
1174 -42 -106 -176 0
-1175 1164 1165 0
-1175 -1164 -1165 0
1175 -1164 1165 0
1175 1164 -1165 0
-1176 1175 1166 0
-1176 -1175 -1166 0
1176 -1175 1166 0
1176 1175 -1166 0
-1177 1176 1167 0
-1177 -1176 -1167 0
1177 -1176 1167 0
1177 1176 -1167 0
-1178 1177 1168 0
-1178 -1177 -1168 0
1178 -1177 1168 0
1178 1177 -1168 0
-1179 1178 1169 0
-1179 -1178 -1169 0
1179 -1178 1169 0
1179 1178 -1169 0
-1180 1179 1170 0
-1180 -1179 -1170 0
1180 -1179 1170 0
1180 1179 -1170 0
-1181 1180 1171 0
-1181 -1180 -1171 0
1181 -1180 1171 0
1181 1180 -1171 0
-1182 1181 1172 0
-1182 -1181 -1172 0
1182 -1181 1172 0
1182 1181 -1172 0
-1183 1182 1173 0
-1183 -1182 -1173 0
1183 -1182 1173 0
1183 1182 -1173 0
-1184 1183 1174 0
-1184 -1183 -1174 0
1184 -1183 1174 0
1184 1183 -1174 0
-1184 0
-1185 2 0
-1185 47 0
-1185 111 0
1185 -2 -47 -111 0
-1186 6 0
-1186 53 0
-1186 117 0
1186 -6 -53 -117 0
-1187 10 0
-1187 59 0
-1187 123 0
1187 -10 -59 -123 0
-1188 14 0
-1188 65 0
-1188 129 0
1188 -14 -65 -129 0
-1189 18 0
-1189 71 0
-1189 135 0
1189 -18 -71 -135 0
-1190 22 0
-1190 77 0
-1190 141 0
1190 -22 -77 -141 0
-1191 26 0
-1191 83 0
-1191 147 0
1191 -26 -83 -147 0
-1192 30 0
-1192 89 0
-1192 153 0
1192 -30 -89 -153 0
-1193 34 0
-1193 95 0
-1193 159 0
1193 -34 -95 -159 0
-1194 38 0
-1194 101 0
-1194 165 0
1194 -38 -101 -165 0
-1195 42 0
-1195 107 0
-1195 171 0
1195 -42 -107 -171 0
-1196 1185 1186 0
-1196 -1185 -1186 0
1196 -1185 1186 0
1196 1185 -1186 0
-1197 1196 1187 0
-1197 -1196 -1187 0
1197 -1196 1187 0
1197 1196 -1187 0
-1198 1197 1188 0
-1198 -1197 -1188 0
1198 -1197 1188 0
1198 1197 -1188 0
-1199 1198 1189 0
-1199 -1198 -1189 0
1199 -1198 1189 0
1199 1198 -1189 0
-1200 1199 1190 0
-1200 -1199 -1190 0
1200 -1199 1190 0
1200 1199 -1190 0
-1201 1200 1191 0
-1201 -1200 -1191 0
1201 -1200 1191 0
1201 1200 -1191 0
-1202 1201 1192 0
-1202 -1201 -1192 0
1202 -1201 1192 0
1202 1201 -1192 0
-1203 1202 1193 0
-1203 -1202 -1193 0
1203 -1202 1193 0
1203 1202 -1193 0
-1204 1203 1194 0
-1204 -1203 -1194 0
1204 -1203 1194 0
1204 1203 -1194 0
-1205 1204 1195 0
-1205 -1204 -1195 0
1205 -1204 1195 0
1205 1204 -1195 0
-1205 0
-1206 2 0
-1206 47 0
-1206 112 0
1206 -2 -47 -112 0
-1207 6 0
-1207 53 0
-1207 118 0
1207 -6 -53 -118 0
-1208 10 0
-1208 59 0
-1208 124 0
1208 -10 -59 -124 0
-1209 14 0
-1209 65 0
-1209 130 0
1209 -14 -65 -130 0
-1210 18 0
-1210 71 0
-1210 136 0
1210 -18 -71 -136 0
-1211 22 0
-1211 77 0
-1211 142 0
1211 -22 -77 -142 0
-1212 26 0
-1212 83 0
-1212 148 0
1212 -26 -83 -148 0
-1213 30 0
-1213 89 0
-1213 154 0
1213 -30 -89 -154 0
-1214 34 0
-1214 95 0
-1214 160 0
1214 -34 -95 -160 0
-1215 38 0
-1215 101 0
-1215 166 0
1215 -38 -101 -166 0
-1216 42 0
-1216 107 0
-1216 172 0
1216 -42 -107 -172 0
-1217 1206 1207 0
-1217 -1206 -1207 0
1217 -1206 1207 0
1217 1206 -1207 0
-1218 1217 1208 0
-1218 -1217 -1208 0
1218 -1217 1208 0
1218 1217 -1208 0
-1219 1218 1209 0
-1219 -1218 -1209 0
1219 -1218 1209 0
1219 1218 -1209 0
-1220 1219 1210 0
-1220 -1219 -1210 0
1220 -1219 1210 0
1220 1219 -1210 0
-1221 1220 1211 0
-1221 -1220 -1211 0
1221 -1220 1211 0
1221 1220 -1211 0
-1222 1221 1212 0
-1222 -1221 -1212 0
1222 -1221 1212 0
1222 1221 -1212 0
-1223 1222 1213 0
-1223 -1222 -1213 0
1223 -1222 1213 0
1223 1222 -1213 0
-1224 1223 1214 0
-1224 -1223 -1214 0
1224 -1223 1214 0
1224 1223 -1214 0
-1225 1224 1215 0
-1225 -1224 -1215 0
1225 -1224 1215 0
1225 1224 -1215 0
-1226 1225 1216 0
-1226 -1225 -1216 0
1226 -1225 1216 0
1226 1225 -1216 0
-1226 0
-1227 2 0
-1227 47 0
-1227 113 0
1227 -2 -47 -113 0
-1228 6 0
-1228 53 0
-1228 119 0
1228 -6 -53 -119 0
-1229 10 0
-1229 59 0
-1229 125 0
1229 -10 -59 -125 0
-1230 14 0
-1230 65 0
-1230 131 0
1230 -14 -65 -131 0
-1231 18 0
-1231 71 0
-1231 137 0
1231 -18 -71 -137 0
-1232 22 0
-1232 77 0
-1232 143 0
1232 -22 -77 -143 0
-1233 26 0
-1233 83 0
-1233 149 0
1233 -26 -83 -149 0
-1234 30 0
-1234 89 0
-1234 155 0
1234 -30 -89 -155 0
-1235 34 0
-1235 95 0
-1235 161 0
1235 -34 -95 -161 0
-1236 38 0
-1236 101 0
-1236 167 0
1236 -38 -101 -167 0
-1237 42 0
-1237 107 0
-1237 173 0
1237 -42 -107 -173 0
-1238 1227 1228 0
-1238 -1227 -1228 0
1238 -1227 1228 0
1238 1227 -1228 0
-1239 1238 1229 0
-1239 -1238 -1229 0
1239 -1238 1229 0
1239 1238 -1229 0
-1240 1239 1230 0
-1240 -1239 -1230 0
1240 -1239 1230 0
1240 1239 -1230 0
-1241 1240 1231 0
-1241 -1240 -1231 0
1241 -1240 1231 0
1241 1240 -1231 0
-1242 1241 1232 0
-1242 -1241 -1232 0
1242 -1241 1232 0
1242 1241 -1232 0
-1243 1242 1233 0
-1243 -1242 -1233 0
1243 -1242 1233 0
1243 1242 -1233 0
-1244 1243 1234 0
-1244 -1243 -1234 0
1244 -1243 1234 0
1244 1243 -1234 0
-1245 1244 1235 0
-1245 -1244 -1235 0
1245 -1244 1235 0
1245 1244 -1235 0
-1246 1245 1236 0
-1246 -1245 -1236 0
1246 -1245 1236 0
1246 1245 -1236 0
-1247 1246 1237 0
-1247 -1246 -1237 0
1247 -1246 1237 0
1247 1246 -1237 0
-1247 0
-1248 2 0
-1248 47 0
-1248 114 0
1248 -2 -47 -114 0
-1249 6 0
-1249 53 0
-1249 120 0
1249 -6 -53 -120 0
-1250 10 0
-1250 59 0
-1250 126 0
1250 -10 -59 -126 0
-1251 14 0
-1251 65 0
-1251 132 0
1251 -14 -65 -132 0
-1252 18 0
-1252 71 0
-1252 138 0
1252 -18 -71 -138 0
-1253 22 0
-1253 77 0
-1253 144 0
1253 -22 -77 -144 0
-1254 26 0
-1254 83 0
-1254 150 0
1254 -26 -83 -150 0
-1255 30 0
-1255 89 0
-1255 156 0
1255 -30 -89 -156 0
-1256 34 0
-1256 95 0
-1256 162 0
1256 -34 -95 -162 0
-1257 38 0
-1257 101 0
-1257 168 0
1257 -38 -101 -168 0
-1258 42 0
-1258 107 0
-1258 174 0
1258 -42 -107 -174 0
-1259 1248 1249 0
-1259 -1248 -1249 0
1259 -1248 1249 0
1259 1248 -1249 0
-1260 1259 1250 0
-1260 -1259 -1250 0
1260 -1259 1250 0
1260 1259 -1250 0
-1261 1260 1251 0
-1261 -1260 -1251 0
1261 -1260 1251 0
1261 1260 -1251 0
-1262 1261 1252 0
-1262 -1261 -1252 0
1262 -1261 1252 0
1262 1261 -1252 0
-1263 1262 1253 0
-1263 -1262 -1253 0
1263 -1262 1253 0
1263 1262 -1253 0
-1264 1263 1254 0
-1264 -1263 -1254 0
1264 -1263 1254 0
1264 1263 -1254 0
-1265 1264 1255 0
-1265 -1264 -1255 0
1265 -1264 1255 0
1265 1264 -1255 0
-1266 1265 1256 0
-1266 -1265 -1256 0
1266 -1265 1256 0
1266 1265 -1256 0
-1267 1266 1257 0
-1267 -1266 -1257 0
1267 -1266 1257 0
1267 1266 -1257 0
-1268 1267 1258 0
-1268 -1267 -1258 0
1268 -1267 1258 0
1268 1267 -1258 0
-1268 0
-1269 2 0
-1269 47 0
-1269 115 0
1269 -2 -47 -115 0
-1270 6 0
-1270 53 0
-1270 121 0
1270 -6 -53 -121 0
-1271 10 0
-1271 59 0
-1271 127 0
1271 -10 -59 -127 0
-1272 14 0
-1272 65 0
-1272 133 0
1272 -14 -65 -133 0
-1273 18 0
-1273 71 0
-1273 139 0
1273 -18 -71 -139 0
-1274 22 0
-1274 77 0
-1274 145 0
1274 -22 -77 -145 0
-1275 26 0
-1275 83 0
-1275 151 0
1275 -26 -83 -151 0
-1276 30 0
-1276 89 0
-1276 157 0
1276 -30 -89 -157 0
-1277 34 0
-1277 95 0
-1277 163 0
1277 -34 -95 -163 0
-1278 38 0
-1278 101 0
-1278 169 0
1278 -38 -101 -169 0
-1279 42 0
-1279 107 0
-1279 175 0
1279 -42 -107 -175 0
-1280 1269 1270 0
-1280 -1269 -1270 0
1280 -1269 1270 0
1280 1269 -1270 0
-1281 1280 1271 0
-1281 -1280 -1271 0
1281 -1280 1271 0
1281 1280 -1271 0
-1282 1281 1272 0
-1282 -1281 -1272 0
1282 -1281 1272 0
1282 1281 -1272 0
-1283 1282 1273 0
-1283 -1282 -1273 0
1283 -1282 1273 0
1283 1282 -1273 0
-1284 1283 1274 0
-1284 -1283 -1274 0
1284 -1283 1274 0
1284 1283 -1274 0
-1285 1284 1275 0
-1285 -1284 -1275 0
1285 -1284 1275 0
1285 1284 -1275 0
-1286 1285 1276 0
-1286 -1285 -1276 0
1286 -1285 1276 0
1286 1285 -1276 0
-1287 1286 1277 0
-1287 -1286 -1277 0
1287 -1286 1277 0
1287 1286 -1277 0
-1288 1287 1278 0
-1288 -1287 -1278 0
1288 -1287 1278 0
1288 1287 -1278 0
-1289 1288 1279 0
-1289 -1288 -1279 0
1289 -1288 1279 0
1289 1288 -1279 0
-1289 0
-1290 2 0
-1290 47 0
-1290 116 0
1290 -2 -47 -116 0
-1291 6 0
-1291 53 0
-1291 122 0
1291 -6 -53 -122 0
-1292 10 0
-1292 59 0
-1292 128 0
1292 -10 -59 -128 0
-1293 14 0
-1293 65 0
-1293 134 0
1293 -14 -65 -134 0
-1294 18 0
-1294 71 0
-1294 140 0
1294 -18 -71 -140 0
-1295 22 0
-1295 77 0
-1295 146 0
1295 -22 -77 -146 0
-1296 26 0
-1296 83 0
-1296 152 0
1296 -26 -83 -152 0
-1297 30 0
-1297 89 0
-1297 158 0
1297 -30 -89 -158 0
-1298 34 0
-1298 95 0
-1298 164 0
1298 -34 -95 -164 0
-1299 38 0
-1299 101 0
-1299 170 0
1299 -38 -101 -170 0
-1300 42 0
-1300 107 0
-1300 176 0
1300 -42 -107 -176 0
-1301 1290 1291 0
-1301 -1290 -1291 0
1301 -1290 1291 0
1301 1290 -1291 0
-1302 1301 1292 0
-1302 -1301 -1292 0
1302 -1301 1292 0
1302 1301 -1292 0
-1303 1302 1293 0
-1303 -1302 -1293 0
1303 -1302 1293 0
1303 1302 -1293 0
-1304 1303 1294 0
-1304 -1303 -1294 0
1304 -1303 1294 0
1304 1303 -1294 0
-1305 1304 1295 0
-1305 -1304 -1295 0
1305 -1304 1295 0
1305 1304 -1295 0
-1306 1305 1296 0
-1306 -1305 -1296 0
1306 -1305 1296 0
1306 1305 -1296 0
-1307 1306 1297 0
-1307 -1306 -1297 0
1307 -1306 1297 0
1307 1306 -1297 0
-1308 1307 1298 0
-1308 -1307 -1298 0
1308 -1307 1298 0
1308 1307 -1298 0
-1309 1308 1299 0
-1309 -1308 -1299 0
1309 -1308 1299 0
1309 1308 -1299 0
-1310 1309 1300 0
-1310 -1309 -1300 0
1310 -1309 1300 0
1310 1309 -1300 0
-1310 0
-1311 2 0
-1311 48 0
-1311 111 0
1311 -2 -48 -111 0
-1312 6 0
-1312 54 0
-1312 117 0
1312 -6 -54 -117 0
-1313 10 0
-1313 60 0
-1313 123 0
1313 -10 -60 -123 0
-1314 14 0
-1314 66 0
-1314 129 0
1314 -14 -66 -129 0
-1315 18 0
-1315 72 0
-1315 135 0
1315 -18 -72 -135 0
-1316 22 0
-1316 78 0
-1316 141 0
1316 -22 -78 -141 0
-1317 26 0
-1317 84 0
-1317 147 0
1317 -26 -84 -147 0
-1318 30 0
-1318 90 0
-1318 153 0
1318 -30 -90 -153 0
-1319 34 0
-1319 96 0
-1319 159 0
1319 -34 -96 -159 0
-1320 38 0
-1320 102 0
-1320 165 0
1320 -38 -102 -165 0
-1321 42 0
-1321 108 0
-1321 171 0
1321 -42 -108 -171 0
-1322 1311 1312 0
-1322 -1311 -1312 0
1322 -1311 1312 0
1322 1311 -1312 0
-1323 1322 1313 0
-1323 -1322 -1313 0
1323 -1322 1313 0
1323 1322 -1313 0
-1324 1323 1314 0
-1324 -1323 -1314 0
1324 -1323 1314 0
1324 1323 -1314 0
-1325 1324 1315 0
-1325 -1324 -1315 0
1325 -1324 1315 0
1325 1324 -1315 0
-1326 1325 1316 0
-1326 -1325 -1316 0
1326 -1325 1316 0
1326 1325 -1316 0
-1327 1326 1317 0
-1327 -1326 -1317 0
1327 -1326 1317 0
1327 1326 -1317 0
-1328 1327 1318 0
-1328 -1327 -1318 0
1328 -1327 1318 0
1328 1327 -1318 0
-1329 1328 1319 0
-1329 -1328 -1319 0
1329 -1328 1319 0
1329 1328 -1319 0
-1330 1329 1320 0
-1330 -1329 -1320 0
1330 -1329 1320 0
1330 1329 -1320 0
-1331 1330 1321 0
-1331 -1330 -1321 0
1331 -1330 1321 0
1331 1330 -1321 0
1331 0
-1332 2 0
-1332 48 0
-1332 112 0
1332 -2 -48 -112 0
-1333 6 0
-1333 54 0
-1333 118 0
1333 -6 -54 -118 0
-1334 10 0
-1334 60 0
-1334 124 0
1334 -10 -60 -124 0
-1335 14 0
-1335 66 0
-1335 130 0
1335 -14 -66 -130 0
-1336 18 0
-1336 72 0
-1336 136 0
1336 -18 -72 -136 0
-1337 22 0
-1337 78 0
-1337 142 0
1337 -22 -78 -142 0
-1338 26 0
-1338 84 0
-1338 148 0
1338 -26 -84 -148 0
-1339 30 0
-1339 90 0
-1339 154 0
1339 -30 -90 -154 0
-1340 34 0
-1340 96 0
-1340 160 0
1340 -34 -96 -160 0
-1341 38 0
-1341 102 0
-1341 166 0
1341 -38 -102 -166 0
-1342 42 0
-1342 108 0
-1342 172 0
1342 -42 -108 -172 0
-1343 1332 1333 0
-1343 -1332 -1333 0
1343 -1332 1333 0
1343 1332 -1333 0
-1344 1343 1334 0
-1344 -1343 -1334 0
1344 -1343 1334 0
1344 1343 -1334 0
-1345 1344 1335 0
-1345 -1344 -1335 0
1345 -1344 1335 0
1345 1344 -1335 0
-1346 1345 1336 0
-1346 -1345 -1336 0
1346 -1345 1336 0
1346 1345 -1336 0
-1347 1346 1337 0
-1347 -1346 -1337 0
1347 -1346 1337 0
1347 1346 -1337 0
-1348 1347 1338 0
-1348 -1347 -1338 0
1348 -1347 1338 0
1348 1347 -1338 0
-1349 1348 1339 0
-1349 -1348 -1339 0
1349 -1348 1339 0
1349 1348 -1339 0
-1350 1349 1340 0
-1350 -1349 -1340 0
1350 -1349 1340 0
1350 1349 -1340 0
-1351 1350 1341 0
-1351 -1350 -1341 0
1351 -1350 1341 0
1351 1350 -1341 0
-1352 1351 1342 0
-1352 -1351 -1342 0
1352 -1351 1342 0
1352 1351 -1342 0
-1352 0
-1353 2 0
-1353 48 0
-1353 113 0
1353 -2 -48 -113 0
-1354 6 0
-1354 54 0
-1354 119 0
1354 -6 -54 -119 0
-1355 10 0
-1355 60 0
-1355 125 0
1355 -10 -60 -125 0
-1356 14 0
-1356 66 0
-1356 131 0
1356 -14 -66 -131 0
-1357 18 0
-1357 72 0
-1357 137 0
1357 -18 -72 -137 0
-1358 22 0
-1358 78 0
-1358 143 0
1358 -22 -78 -143 0
-1359 26 0
-1359 84 0
-1359 149 0
1359 -26 -84 -149 0
-1360 30 0
-1360 90 0
-1360 155 0
1360 -30 -90 -155 0
-1361 34 0
-1361 96 0
-1361 161 0
1361 -34 -96 -161 0
-1362 38 0
-1362 102 0
-1362 167 0
1362 -38 -102 -167 0
-1363 42 0
-1363 108 0
-1363 173 0
1363 -42 -108 -173 0
-1364 1353 1354 0
-1364 -1353 -1354 0
1364 -1353 1354 0
1364 1353 -1354 0
-1365 1364 1355 0
-1365 -1364 -1355 0
1365 -1364 1355 0
1365 1364 -1355 0
-1366 1365 1356 0
-1366 -1365 -1356 0
1366 -1365 1356 0
1366 1365 -1356 0
-1367 1366 1357 0
-1367 -1366 -1357 0
1367 -1366 1357 0
1367 1366 -1357 0
-1368 1367 1358 0
-1368 -1367 -1358 0
1368 -1367 1358 0
1368 1367 -1358 0
-1369 1368 1359 0
-1369 -1368 -1359 0
1369 -1368 1359 0
1369 1368 -1359 0
-1370 1369 1360 0
-1370 -1369 -1360 0
1370 -1369 1360 0
1370 1369 -1360 0
-1371 1370 1361 0
-1371 -1370 -1361 0
1371 -1370 1361 0
1371 1370 -1361 0
-1372 1371 1362 0
-1372 -1371 -1362 0
1372 -1371 1362 0
1372 1371 -1362 0
-1373 1372 1363 0
-1373 -1372 -1363 0
1373 -1372 1363 0
1373 1372 -1363 0
-1373 0
-1374 2 0
-1374 48 0
-1374 114 0
1374 -2 -48 -114 0
-1375 6 0
-1375 54 0
-1375 120 0
1375 -6 -54 -120 0
-1376 10 0
-1376 60 0
-1376 126 0
1376 -10 -60 -126 0
-1377 14 0
-1377 66 0
-1377 132 0
1377 -14 -66 -132 0
-1378 18 0
-1378 72 0
-1378 138 0
1378 -18 -72 -138 0
-1379 22 0
-1379 78 0
-1379 144 0
1379 -22 -78 -144 0
-1380 26 0
-1380 84 0
-1380 150 0
1380 -26 -84 -150 0
-1381 30 0
-1381 90 0
-1381 156 0
1381 -30 -90 -156 0
-1382 34 0
-1382 96 0
-1382 162 0
1382 -34 -96 -162 0
-1383 38 0
-1383 102 0
-1383 168 0
1383 -38 -102 -168 0
-1384 42 0
-1384 108 0
-1384 174 0
1384 -42 -108 -174 0
-1385 1374 1375 0
-1385 -1374 -1375 0
1385 -1374 1375 0
1385 1374 -1375 0
-1386 1385 1376 0
-1386 -1385 -1376 0
1386 -1385 1376 0
1386 1385 -1376 0
-1387 1386 1377 0
-1387 -1386 -1377 0
1387 -1386 1377 0
1387 1386 -1377 0
-1388 1387 1378 0
-1388 -1387 -1378 0
1388 -1387 1378 0
1388 1387 -1378 0
-1389 1388 1379 0
-1389 -1388 -1379 0
1389 -1388 1379 0
1389 1388 -1379 0
-1390 1389 1380 0
-1390 -1389 -1380 0
1390 -1389 1380 0
1390 1389 -1380 0
-1391 1390 1381 0
-1391 -1390 -1381 0
1391 -1390 1381 0
1391 1390 -1381 0
-1392 1391 1382 0
-1392 -1391 -1382 0
1392 -1391 1382 0
1392 1391 -1382 0
-1393 1392 1383 0
-1393 -1392 -1383 0
1393 -1392 1383 0
1393 1392 -1383 0
-1394 1393 1384 0
-1394 -1393 -1384 0
1394 -1393 1384 0
1394 1393 -1384 0
-1394 0
-1395 2 0
-1395 48 0
-1395 115 0
1395 -2 -48 -115 0
-1396 6 0
-1396 54 0
-1396 121 0
1396 -6 -54 -121 0
-1397 10 0
-1397 60 0
-1397 127 0
1397 -10 -60 -127 0
-1398 14 0
-1398 66 0
-1398 133 0
1398 -14 -66 -133 0
-1399 18 0
-1399 72 0
-1399 139 0
1399 -18 -72 -139 0
-1400 22 0
-1400 78 0
-1400 145 0
1400 -22 -78 -145 0
-1401 26 0
-1401 84 0
-1401 151 0
1401 -26 -84 -151 0
-1402 30 0
-1402 90 0
-1402 157 0
1402 -30 -90 -157 0
-1403 34 0
-1403 96 0
-1403 163 0
1403 -34 -96 -163 0
-1404 38 0
-1404 102 0
-1404 169 0
1404 -38 -102 -169 0
-1405 42 0
-1405 108 0
-1405 175 0
1405 -42 -108 -175 0
-1406 1395 1396 0
-1406 -1395 -1396 0
1406 -1395 1396 0
1406 1395 -1396 0
-1407 1406 1397 0
-1407 -1406 -1397 0
1407 -1406 1397 0
1407 1406 -1397 0
-1408 1407 1398 0
-1408 -1407 -1398 0
1408 -1407 1398 0
1408 1407 -1398 0
-1409 1408 1399 0
-1409 -1408 -1399 0
1409 -1408 1399 0
1409 1408 -1399 0
-1410 1409 1400 0
-1410 -1409 -1400 0
1410 -1409 1400 0
1410 1409 -1400 0
-1411 1410 1401 0
-1411 -1410 -1401 0
1411 -1410 1401 0
1411 1410 -1401 0
-1412 1411 1402 0
-1412 -1411 -1402 0
1412 -1411 1402 0
1412 1411 -1402 0
-1413 1412 1403 0
-1413 -1412 -1403 0
1413 -1412 1403 0
1413 1412 -1403 0
-1414 1413 1404 0
-1414 -1413 -1404 0
1414 -1413 1404 0
1414 1413 -1404 0
-1415 1414 1405 0
-1415 -1414 -1405 0
1415 -1414 1405 0
1415 1414 -1405 0
-1415 0
-1416 2 0
-1416 48 0
-1416 116 0
1416 -2 -48 -116 0
-1417 6 0
-1417 54 0
-1417 122 0
1417 -6 -54 -122 0
-1418 10 0
-1418 60 0
-1418 128 0
1418 -10 -60 -128 0
-1419 14 0
-1419 66 0
-1419 134 0
1419 -14 -66 -134 0
-1420 18 0
-1420 72 0
-1420 140 0
1420 -18 -72 -140 0
-1421 22 0
-1421 78 0
-1421 146 0
1421 -22 -78 -146 0
-1422 26 0
-1422 84 0
-1422 152 0
1422 -26 -84 -152 0
-1423 30 0
-1423 90 0
-1423 158 0
1423 -30 -90 -158 0
-1424 34 0
-1424 96 0
-1424 164 0
1424 -34 -96 -164 0
-1425 38 0
-1425 102 0
-1425 170 0
1425 -38 -102 -170 0
-1426 42 0
-1426 108 0
-1426 176 0
1426 -42 -108 -176 0
-1427 1416 1417 0
-1427 -1416 -1417 0
1427 -1416 1417 0
1427 1416 -1417 0
-1428 1427 1418 0
-1428 -1427 -1418 0
1428 -1427 1418 0
1428 1427 -1418 0
-1429 1428 1419 0
-1429 -1428 -1419 0
1429 -1428 1419 0
1429 1428 -1419 0
-1430 1429 1420 0
-1430 -1429 -1420 0
1430 -1429 1420 0
1430 1429 -1420 0
-1431 1430 1421 0
-1431 -1430 -1421 0
1431 -1430 1421 0
1431 1430 -1421 0
-1432 1431 1422 0
-1432 -1431 -1422 0
1432 -1431 1422 0
1432 1431 -1422 0
-1433 1432 1423 0
-1433 -1432 -1423 0
1433 -1432 1423 0
1433 1432 -1423 0
-1434 1433 1424 0
-1434 -1433 -1424 0
1434 -1433 1424 0
1434 1433 -1424 0
-1435 1434 1425 0
-1435 -1434 -1425 0
1435 -1434 1425 0
1435 1434 -1425 0
-1436 1435 1426 0
-1436 -1435 -1426 0
1436 -1435 1426 0
1436 1435 -1426 0
-1436 0
-1437 2 0
-1437 49 0
-1437 111 0
1437 -2 -49 -111 0
-1438 6 0
-1438 55 0
-1438 117 0
1438 -6 -55 -117 0
-1439 10 0
-1439 61 0
-1439 123 0
1439 -10 -61 -123 0
-1440 14 0
-1440 67 0
-1440 129 0
1440 -14 -67 -129 0
-1441 18 0
-1441 73 0
-1441 135 0
1441 -18 -73 -135 0
-1442 22 0
-1442 79 0
-1442 141 0
1442 -22 -79 -141 0
-1443 26 0
-1443 85 0
-1443 147 0
1443 -26 -85 -147 0
-1444 30 0
-1444 91 0
-1444 153 0
1444 -30 -91 -153 0
-1445 34 0
-1445 97 0
-1445 159 0
1445 -34 -97 -159 0
-1446 38 0
-1446 103 0
-1446 165 0
1446 -38 -103 -165 0
-1447 42 0
-1447 109 0
-1447 171 0
1447 -42 -109 -171 0
-1448 1437 1438 0
-1448 -1437 -1438 0
1448 -1437 1438 0
1448 1437 -1438 0
-1449 1448 1439 0
-1449 -1448 -1439 0
1449 -1448 1439 0
1449 1448 -1439 0
-1450 1449 1440 0
-1450 -1449 -1440 0
1450 -1449 1440 0
1450 1449 -1440 0
-1451 1450 1441 0
-1451 -1450 -1441 0
1451 -1450 1441 0
1451 1450 -1441 0
-1452 1451 1442 0
-1452 -1451 -1442 0
1452 -1451 1442 0
1452 1451 -1442 0
-1453 1452 1443 0
-1453 -1452 -1443 0
1453 -1452 1443 0
1453 1452 -1443 0
-1454 1453 1444 0
-1454 -1453 -1444 0
1454 -1453 1444 0
1454 1453 -1444 0
-1455 1454 1445 0
-1455 -1454 -1445 0
1455 -1454 1445 0
1455 1454 -1445 0
-1456 1455 1446 0
-1456 -1455 -1446 0
1456 -1455 1446 0
1456 1455 -1446 0
-1457 1456 1447 0
-1457 -1456 -1447 0
1457 -1456 1447 0
1457 1456 -1447 0
-1457 0
-1458 2 0
-1458 49 0
-1458 112 0
1458 -2 -49 -112 0
-1459 6 0
-1459 55 0
-1459 118 0
1459 -6 -55 -118 0
-1460 10 0
-1460 61 0
-1460 124 0
1460 -10 -61 -124 0
-1461 14 0
-1461 67 0
-1461 130 0
1461 -14 -67 -130 0
-1462 18 0
-1462 73 0
-1462 136 0
1462 -18 -73 -136 0
-1463 22 0
-1463 79 0
-1463 142 0
1463 -22 -79 -142 0
-1464 26 0
-1464 85 0
-1464 148 0
1464 -26 -85 -148 0
-1465 30 0
-1465 91 0
-1465 154 0
1465 -30 -91 -154 0
-1466 34 0
-1466 97 0
-1466 160 0
1466 -34 -97 -160 0
-1467 38 0
-1467 103 0
-1467 166 0
1467 -38 -103 -166 0
-1468 42 0
-1468 109 0
-1468 172 0
1468 -42 -109 -172 0
-1469 1458 1459 0
-1469 -1458 -1459 0
1469 -1458 1459 0
1469 1458 -1459 0
-1470 1469 1460 0
-1470 -1469 -1460 0
1470 -1469 1460 0
1470 1469 -1460 0
-1471 1470 1461 0
-1471 -1470 -1461 0
1471 -1470 1461 0
1471 1470 -1461 0
-1472 1471 1462 0
-1472 -1471 -1462 0
1472 -1471 1462 0
1472 1471 -1462 0
-1473 1472 1463 0
-1473 -1472 -1463 0
1473 -1472 1463 0
1473 1472 -1463 0
-1474 1473 1464 0
-1474 -1473 -1464 0
1474 -1473 1464 0
1474 1473 -1464 0
-1475 1474 1465 0
-1475 -1474 -1465 0
1475 -1474 1465 0
1475 1474 -1465 0
-1476 1475 1466 0
-1476 -1475 -1466 0
1476 -1475 1466 0
1476 1475 -1466 0
-1477 1476 1467 0
-1477 -1476 -1467 0
1477 -1476 1467 0
1477 1476 -1467 0
-1478 1477 1468 0
-1478 -1477 -1468 0
1478 -1477 1468 0
1478 1477 -1468 0
1478 0
-1479 2 0
-1479 49 0
-1479 113 0
1479 -2 -49 -113 0
-1480 6 0
-1480 55 0
-1480 119 0
1480 -6 -55 -119 0
-1481 10 0
-1481 61 0
-1481 125 0
1481 -10 -61 -125 0
-1482 14 0
-1482 67 0
-1482 131 0
1482 -14 -67 -131 0
-1483 18 0
-1483 73 0
-1483 137 0
1483 -18 -73 -137 0
-1484 22 0
-1484 79 0
-1484 143 0
1484 -22 -79 -143 0
-1485 26 0
-1485 85 0
-1485 149 0
1485 -26 -85 -149 0
-1486 30 0
-1486 91 0
-1486 155 0
1486 -30 -91 -155 0
-1487 34 0
-1487 97 0
-1487 161 0
1487 -34 -97 -161 0
-1488 38 0
-1488 103 0
-1488 167 0
1488 -38 -103 -167 0
-1489 42 0
-1489 109 0
-1489 173 0
1489 -42 -109 -173 0
-1490 1479 1480 0
-1490 -1479 -1480 0
1490 -1479 1480 0
1490 1479 -1480 0
-1491 1490 1481 0
-1491 -1490 -1481 0
1491 -1490 1481 0
1491 1490 -1481 0
-1492 1491 1482 0
-1492 -1491 -1482 0
1492 -1491 1482 0
1492 1491 -1482 0
-1493 1492 1483 0
-1493 -1492 -1483 0
1493 -1492 1483 0
1493 1492 -1483 0
-1494 1493 1484 0
-1494 -1493 -1484 0
1494 -1493 1484 0
1494 1493 -1484 0
-1495 1494 1485 0
-1495 -1494 -1485 0
1495 -1494 1485 0
1495 1494 -1485 0
-1496 1495 1486 0
-1496 -1495 -1486 0
1496 -1495 1486 0
1496 1495 -1486 0
-1497 1496 1487 0
-1497 -1496 -1487 0
1497 -1496 1487 0
1497 1496 -1487 0
-1498 1497 1488 0
-1498 -1497 -1488 0
1498 -1497 1488 0
1498 1497 -1488 0
-1499 1498 1489 0
-1499 -1498 -1489 0
1499 -1498 1489 0
1499 1498 -1489 0
-1499 0
-1500 2 0
-1500 49 0
-1500 114 0
1500 -2 -49 -114 0
-1501 6 0
-1501 55 0
-1501 120 0
1501 -6 -55 -120 0
-1502 10 0
-1502 61 0
-1502 126 0
1502 -10 -61 -126 0
-1503 14 0
-1503 67 0
-1503 132 0
1503 -14 -67 -132 0
-1504 18 0
-1504 73 0
-1504 138 0
1504 -18 -73 -138 0
-1505 22 0
-1505 79 0
-1505 144 0
1505 -22 -79 -144 0
-1506 26 0
-1506 85 0
-1506 150 0
1506 -26 -85 -150 0
-1507 30 0
-1507 91 0
-1507 156 0
1507 -30 -91 -156 0
-1508 34 0
-1508 97 0
-1508 162 0
1508 -34 -97 -162 0
-1509 38 0
-1509 103 0
-1509 168 0
1509 -38 -103 -168 0
-1510 42 0
-1510 109 0
-1510 174 0
1510 -42 -109 -174 0
-1511 1500 1501 0
-1511 -1500 -1501 0
1511 -1500 1501 0
1511 1500 -1501 0
-1512 1511 1502 0
-1512 -1511 -1502 0
1512 -1511 1502 0
1512 1511 -1502 0
-1513 1512 1503 0
-1513 -1512 -1503 0
1513 -1512 1503 0
1513 1512 -1503 0
-1514 1513 1504 0
-1514 -1513 -1504 0
1514 -1513 1504 0
1514 1513 -1504 0
-1515 1514 1505 0
-1515 -1514 -1505 0
1515 -1514 1505 0
1515 1514 -1505 0
-1516 1515 1506 0
-1516 -1515 -1506 0
1516 -1515 1506 0
1516 1515 -1506 0
-1517 1516 1507 0
-1517 -1516 -1507 0
1517 -1516 1507 0
1517 1516 -1507 0
-1518 1517 1508 0
-1518 -1517 -1508 0
1518 -1517 1508 0
1518 1517 -1508 0
-1519 1518 1509 0
-1519 -1518 -1509 0
1519 -1518 1509 0
1519 1518 -1509 0
-1520 1519 1510 0
-1520 -1519 -1510 0
1520 -1519 1510 0
1520 1519 -1510 0
-1520 0
-1521 2 0
-1521 49 0
-1521 115 0
1521 -2 -49 -115 0
-1522 6 0
-1522 55 0
-1522 121 0
1522 -6 -55 -121 0
-1523 10 0
-1523 61 0
-1523 127 0
1523 -10 -61 -127 0
-1524 14 0
-1524 67 0
-1524 133 0
1524 -14 -67 -133 0
-1525 18 0
-1525 73 0
-1525 139 0
1525 -18 -73 -139 0
-1526 22 0
-1526 79 0
-1526 145 0
1526 -22 -79 -145 0
-1527 26 0
-1527 85 0
-1527 151 0
1527 -26 -85 -151 0
-1528 30 0
-1528 91 0
-1528 157 0
1528 -30 -91 -157 0
-1529 34 0
-1529 97 0
-1529 163 0
1529 -34 -97 -163 0
-1530 38 0
-1530 103 0
-1530 169 0
1530 -38 -103 -169 0
-1531 42 0
-1531 109 0
-1531 175 0
1531 -42 -109 -175 0
-1532 1521 1522 0
-1532 -1521 -1522 0
1532 -1521 1522 0
1532 1521 -1522 0
-1533 1532 1523 0
-1533 -1532 -1523 0
1533 -1532 1523 0
1533 1532 -1523 0
-1534 1533 1524 0
-1534 -1533 -1524 0
1534 -1533 1524 0
1534 1533 -1524 0
-1535 1534 1525 0
-1535 -1534 -1525 0
1535 -1534 1525 0
1535 1534 -1525 0
-1536 1535 1526 0
-1536 -1535 -1526 0
1536 -1535 1526 0
1536 1535 -1526 0
-1537 1536 1527 0
-1537 -1536 -1527 0
1537 -1536 1527 0
1537 1536 -1527 0
-1538 1537 1528 0
-1538 -1537 -1528 0
1538 -1537 1528 0
1538 1537 -1528 0
-1539 1538 1529 0
-1539 -1538 -1529 0
1539 -1538 1529 0
1539 1538 -1529 0
-1540 1539 1530 0
-1540 -1539 -1530 0
1540 -1539 1530 0
1540 1539 -1530 0
-1541 1540 1531 0
-1541 -1540 -1531 0
1541 -1540 1531 0
1541 1540 -1531 0
-1541 0
-1542 2 0
-1542 49 0
-1542 116 0
1542 -2 -49 -116 0
-1543 6 0
-1543 55 0
-1543 122 0
1543 -6 -55 -122 0
-1544 10 0
-1544 61 0
-1544 128 0
1544 -10 -61 -128 0
-1545 14 0
-1545 67 0
-1545 134 0
1545 -14 -67 -134 0
-1546 18 0
-1546 73 0
-1546 140 0
1546 -18 -73 -140 0
-1547 22 0
-1547 79 0
-1547 146 0
1547 -22 -79 -146 0
-1548 26 0
-1548 85 0
-1548 152 0
1548 -26 -85 -152 0
-1549 30 0
-1549 91 0
-1549 158 0
1549 -30 -91 -158 0
-1550 34 0
-1550 97 0
-1550 164 0
1550 -34 -97 -164 0
-1551 38 0
-1551 103 0
-1551 170 0
1551 -38 -103 -170 0
-1552 42 0
-1552 109 0
-1552 176 0
1552 -42 -109 -176 0
-1553 1542 1543 0
-1553 -1542 -1543 0
1553 -1542 1543 0
1553 1542 -1543 0
-1554 1553 1544 0
-1554 -1553 -1544 0
1554 -1553 1544 0
1554 1553 -1544 0
-1555 1554 1545 0
-1555 -1554 -1545 0
1555 -1554 1545 0
1555 1554 -1545 0
-1556 1555 1546 0
-1556 -1555 -1546 0
1556 -1555 1546 0
1556 1555 -1546 0
-1557 1556 1547 0
-1557 -1556 -1547 0
1557 -1556 1547 0
1557 1556 -1547 0
-1558 1557 1548 0
-1558 -1557 -1548 0
1558 -1557 1548 0
1558 1557 -1548 0
-1559 1558 1549 0
-1559 -1558 -1549 0
1559 -1558 1549 0
1559 1558 -1549 0
-1560 1559 1550 0
-1560 -1559 -1550 0
1560 -1559 1550 0
1560 1559 -1550 0
-1561 1560 1551 0
-1561 -1560 -1551 0
1561 -1560 1551 0
1561 1560 -1551 0
-1562 1561 1552 0
-1562 -1561 -1552 0
1562 -1561 1552 0
1562 1561 -1552 0
-1562 0
-1563 2 0
-1563 50 0
-1563 111 0
1563 -2 -50 -111 0
-1564 6 0
-1564 56 0
-1564 117 0
1564 -6 -56 -117 0
-1565 10 0
-1565 62 0
-1565 123 0
1565 -10 -62 -123 0
-1566 14 0
-1566 68 0
-1566 129 0
1566 -14 -68 -129 0
-1567 18 0
-1567 74 0
-1567 135 0
1567 -18 -74 -135 0
-1568 22 0
-1568 80 0
-1568 141 0
1568 -22 -80 -141 0
-1569 26 0
-1569 86 0
-1569 147 0
1569 -26 -86 -147 0
-1570 30 0
-1570 92 0
-1570 153 0
1570 -30 -92 -153 0
-1571 34 0
-1571 98 0
-1571 159 0
1571 -34 -98 -159 0
-1572 38 0
-1572 104 0
-1572 165 0
1572 -38 -104 -165 0
-1573 42 0
-1573 110 0
-1573 171 0
1573 -42 -110 -171 0
-1574 1563 1564 0
-1574 -1563 -1564 0
1574 -1563 1564 0
1574 1563 -1564 0
-1575 1574 1565 0
-1575 -1574 -1565 0
1575 -1574 1565 0
1575 1574 -1565 0
-1576 1575 1566 0
-1576 -1575 -1566 0
1576 -1575 1566 0
1576 1575 -1566 0
-1577 1576 1567 0
-1577 -1576 -1567 0
1577 -1576 1567 0
1577 1576 -1567 0
-1578 1577 1568 0
-1578 -1577 -1568 0
1578 -1577 1568 0
1578 1577 -1568 0
-1579 1578 1569 0
-1579 -1578 -1569 0
1579 -1578 1569 0
1579 1578 -1569 0
-1580 1579 1570 0
-1580 -1579 -1570 0
1580 -1579 1570 0
1580 1579 -1570 0
-1581 1580 1571 0
-1581 -1580 -1571 0
1581 -1580 1571 0
1581 1580 -1571 0
-1582 1581 1572 0
-1582 -1581 -1572 0
1582 -1581 1572 0
1582 1581 -1572 0
-1583 1582 1573 0
-1583 -1582 -1573 0
1583 -1582 1573 0
1583 1582 -1573 0
-1583 0
-1584 2 0
-1584 50 0
-1584 112 0
1584 -2 -50 -112 0
-1585 6 0
-1585 56 0
-1585 118 0
1585 -6 -56 -118 0
-1586 10 0
-1586 62 0
-1586 124 0
1586 -10 -62 -124 0
-1587 14 0
-1587 68 0
-1587 130 0
1587 -14 -68 -130 0
-1588 18 0
-1588 74 0
-1588 136 0
1588 -18 -74 -136 0
-1589 22 0
-1589 80 0
-1589 142 0
1589 -22 -80 -142 0
-1590 26 0
-1590 86 0
-1590 148 0
1590 -26 -86 -148 0
-1591 30 0
-1591 92 0
-1591 154 0
1591 -30 -92 -154 0
-1592 34 0
-1592 98 0
-1592 160 0
1592 -34 -98 -160 0
-1593 38 0
-1593 104 0
-1593 166 0
1593 -38 -104 -166 0
-1594 42 0
-1594 110 0
-1594 172 0
1594 -42 -110 -172 0
-1595 1584 1585 0
-1595 -1584 -1585 0
1595 -1584 1585 0
1595 1584 -1585 0
-1596 1595 1586 0
-1596 -1595 -1586 0
1596 -1595 1586 0
1596 1595 -1586 0
-1597 1596 1587 0
-1597 -1596 -1587 0
1597 -1596 1587 0
1597 1596 -1587 0
-1598 1597 1588 0
-1598 -1597 -1588 0
1598 -1597 1588 0
1598 1597 -1588 0
-1599 1598 1589 0
-1599 -1598 -1589 0
1599 -1598 1589 0
1599 1598 -1589 0
-1600 1599 1590 0
-1600 -1599 -1590 0
1600 -1599 1590 0
1600 1599 -1590 0
-1601 1600 1591 0
-1601 -1600 -1591 0
1601 -1600 1591 0
1601 1600 -1591 0
-1602 1601 1592 0
-1602 -1601 -1592 0
1602 -1601 1592 0
1602 1601 -1592 0
-1603 1602 1593 0
-1603 -1602 -1593 0
1603 -1602 1593 0
1603 1602 -1593 0
-1604 1603 1594 0
-1604 -1603 -1594 0
1604 -1603 1594 0
1604 1603 -1594 0
-1604 0
-1605 2 0
-1605 50 0
-1605 113 0
1605 -2 -50 -113 0
-1606 6 0
-1606 56 0
-1606 119 0
1606 -6 -56 -119 0
-1607 10 0
-1607 62 0
-1607 125 0
1607 -10 -62 -125 0
-1608 14 0
-1608 68 0
-1608 131 0
1608 -14 -68 -131 0
-1609 18 0
-1609 74 0
-1609 137 0
1609 -18 -74 -137 0
-1610 22 0
-1610 80 0
-1610 143 0
1610 -22 -80 -143 0
-1611 26 0
-1611 86 0
-1611 149 0
1611 -26 -86 -149 0
-1612 30 0
-1612 92 0
-1612 155 0
1612 -30 -92 -155 0
-1613 34 0
-1613 98 0
-1613 161 0
1613 -34 -98 -161 0
-1614 38 0
-1614 104 0
-1614 167 0
1614 -38 -104 -167 0
-1615 42 0
-1615 110 0
-1615 173 0
1615 -42 -110 -173 0
-1616 1605 1606 0
-1616 -1605 -1606 0
1616 -1605 1606 0
1616 1605 -1606 0
-1617 1616 1607 0
-1617 -1616 -1607 0
1617 -1616 1607 0
1617 1616 -1607 0
-1618 1617 1608 0
-1618 -1617 -1608 0
1618 -1617 1608 0
1618 1617 -1608 0
-1619 1618 1609 0
-1619 -1618 -1609 0
1619 -1618 1609 0
1619 1618 -1609 0
-1620 1619 1610 0
-1620 -1619 -1610 0
1620 -1619 1610 0
1620 1619 -1610 0
-1621 1620 1611 0
-1621 -1620 -1611 0
1621 -1620 1611 0
1621 1620 -1611 0
-1622 1621 1612 0
-1622 -1621 -1612 0
1622 -1621 1612 0
1622 1621 -1612 0
-1623 1622 1613 0
-1623 -1622 -1613 0
1623 -1622 1613 0
1623 1622 -1613 0
-1624 1623 1614 0
-1624 -1623 -1614 0
1624 -1623 1614 0
1624 1623 -1614 0
-1625 1624 1615 0
-1625 -1624 -1615 0
1625 -1624 1615 0
1625 1624 -1615 0
1625 0
-1626 2 0
-1626 50 0
-1626 114 0
1626 -2 -50 -114 0
-1627 6 0
-1627 56 0
-1627 120 0
1627 -6 -56 -120 0
-1628 10 0
-1628 62 0
-1628 126 0
1628 -10 -62 -126 0
-1629 14 0
-1629 68 0
-1629 132 0
1629 -14 -68 -132 0
-1630 18 0
-1630 74 0
-1630 138 0
1630 -18 -74 -138 0
-1631 22 0
-1631 80 0
-1631 144 0
1631 -22 -80 -144 0
-1632 26 0
-1632 86 0
-1632 150 0
1632 -26 -86 -150 0
-1633 30 0
-1633 92 0
-1633 156 0
1633 -30 -92 -156 0
-1634 34 0
-1634 98 0
-1634 162 0
1634 -34 -98 -162 0
-1635 38 0
-1635 104 0
-1635 168 0
1635 -38 -104 -168 0
-1636 42 0
-1636 110 0
-1636 174 0
1636 -42 -110 -174 0
-1637 1626 1627 0
-1637 -1626 -1627 0
1637 -1626 1627 0
1637 1626 -1627 0
-1638 1637 1628 0
-1638 -1637 -1628 0
1638 -1637 1628 0
1638 1637 -1628 0
-1639 1638 1629 0
-1639 -1638 -1629 0
1639 -1638 1629 0
1639 1638 -1629 0
-1640 1639 1630 0
-1640 -1639 -1630 0
1640 -1639 1630 0
1640 1639 -1630 0
-1641 1640 1631 0
-1641 -1640 -1631 0
1641 -1640 1631 0
1641 1640 -1631 0
-1642 1641 1632 0
-1642 -1641 -1632 0
1642 -1641 1632 0
1642 1641 -1632 0
-1643 1642 1633 0
-1643 -1642 -1633 0
1643 -1642 1633 0
1643 1642 -1633 0
-1644 1643 1634 0
-1644 -1643 -1634 0
1644 -1643 1634 0
1644 1643 -1634 0
-1645 1644 1635 0
-1645 -1644 -1635 0
1645 -1644 1635 0
1645 1644 -1635 0
-1646 1645 1636 0
-1646 -1645 -1636 0
1646 -1645 1636 0
1646 1645 -1636 0
-1646 0
-1647 2 0
-1647 50 0
-1647 115 0
1647 -2 -50 -115 0
-1648 6 0
-1648 56 0
-1648 121 0
1648 -6 -56 -121 0
-1649 10 0
-1649 62 0
-1649 127 0
1649 -10 -62 -127 0
-1650 14 0
-1650 68 0
-1650 133 0
1650 -14 -68 -133 0
-1651 18 0
-1651 74 0
-1651 139 0
1651 -18 -74 -139 0
-1652 22 0
-1652 80 0
-1652 145 0
1652 -22 -80 -145 0
-1653 26 0
-1653 86 0
-1653 151 0
1653 -26 -86 -151 0
-1654 30 0
-1654 92 0
-1654 157 0
1654 -30 -92 -157 0
-1655 34 0
-1655 98 0
-1655 163 0
1655 -34 -98 -163 0
-1656 38 0
-1656 104 0
-1656 169 0
1656 -38 -104 -169 0
-1657 42 0
-1657 110 0
-1657 175 0
1657 -42 -110 -175 0
-1658 1647 1648 0
-1658 -1647 -1648 0
1658 -1647 1648 0
1658 1647 -1648 0
-1659 1658 1649 0
-1659 -1658 -1649 0
1659 -1658 1649 0
1659 1658 -1649 0
-1660 1659 1650 0
-1660 -1659 -1650 0
1660 -1659 1650 0
1660 1659 -1650 0
-1661 1660 1651 0
-1661 -1660 -1651 0
1661 -1660 1651 0
1661 1660 -1651 0
-1662 1661 1652 0
-1662 -1661 -1652 0
1662 -1661 1652 0
1662 1661 -1652 0
-1663 1662 1653 0
-1663 -1662 -1653 0
1663 -1662 1653 0
1663 1662 -1653 0
-1664 1663 1654 0
-1664 -1663 -1654 0
1664 -1663 1654 0
1664 1663 -1654 0
-1665 1664 1655 0
-1665 -1664 -1655 0
1665 -1664 1655 0
1665 1664 -1655 0
-1666 1665 1656 0
-1666 -1665 -1656 0
1666 -1665 1656 0
1666 1665 -1656 0
-1667 1666 1657 0
-1667 -1666 -1657 0
1667 -1666 1657 0
1667 1666 -1657 0
-1667 0
-1668 2 0
-1668 50 0
-1668 116 0
1668 -2 -50 -116 0
-1669 6 0
-1669 56 0
-1669 122 0
1669 -6 -56 -122 0
-1670 10 0
-1670 62 0
-1670 128 0
1670 -10 -62 -128 0
-1671 14 0
-1671 68 0
-1671 134 0
1671 -14 -68 -134 0
-1672 18 0
-1672 74 0
-1672 140 0
1672 -18 -74 -140 0
-1673 22 0
-1673 80 0
-1673 146 0
1673 -22 -80 -146 0
-1674 26 0
-1674 86 0
-1674 152 0
1674 -26 -86 -152 0
-1675 30 0
-1675 92 0
-1675 158 0
1675 -30 -92 -158 0
-1676 34 0
-1676 98 0
-1676 164 0
1676 -34 -98 -164 0
-1677 38 0
-1677 104 0
-1677 170 0
1677 -38 -104 -170 0
-1678 42 0
-1678 110 0
-1678 176 0
1678 -42 -110 -176 0
-1679 1668 1669 0
-1679 -1668 -1669 0
1679 -1668 1669 0
1679 1668 -1669 0
-1680 1679 1670 0
-1680 -1679 -1670 0
1680 -1679 1670 0
1680 1679 -1670 0
-1681 1680 1671 0
-1681 -1680 -1671 0
1681 -1680 1671 0
1681 1680 -1671 0
-1682 1681 1672 0
-1682 -1681 -1672 0
1682 -1681 1672 0
1682 1681 -1672 0
-1683 1682 1673 0
-1683 -1682 -1673 0
1683 -1682 1673 0
1683 1682 -1673 0
-1684 1683 1674 0
-1684 -1683 -1674 0
1684 -1683 1674 0
1684 1683 -1674 0
-1685 1684 1675 0
-1685 -1684 -1675 0
1685 -1684 1675 0
1685 1684 -1675 0
-1686 1685 1676 0
-1686 -1685 -1676 0
1686 -1685 1676 0
1686 1685 -1676 0
-1687 1686 1677 0
-1687 -1686 -1677 0
1687 -1686 1677 0
1687 1686 -1677 0
-1688 1687 1678 0
-1688 -1687 -1678 0
1688 -1687 1678 0
1688 1687 -1678 0
-1688 0
-1689 3 0
-1689 45 0
-1689 111 0
1689 -3 -45 -111 0
-1690 7 0
-1690 51 0
-1690 117 0
1690 -7 -51 -117 0
-1691 11 0
-1691 57 0
-1691 123 0
1691 -11 -57 -123 0
-1692 15 0
-1692 63 0
-1692 129 0
1692 -15 -63 -129 0
-1693 19 0
-1693 69 0
-1693 135 0
1693 -19 -69 -135 0
-1694 23 0
-1694 75 0
-1694 141 0
1694 -23 -75 -141 0
-1695 27 0
-1695 81 0
-1695 147 0
1695 -27 -81 -147 0
-1696 31 0
-1696 87 0
-1696 153 0
1696 -31 -87 -153 0
-1697 35 0
-1697 93 0
-1697 159 0
1697 -35 -93 -159 0
-1698 39 0
-1698 99 0
-1698 165 0
1698 -39 -99 -165 0
-1699 43 0
-1699 105 0
-1699 171 0
1699 -43 -105 -171 0
-1700 1689 1690 0
-1700 -1689 -1690 0
1700 -1689 1690 0
1700 1689 -1690 0
-1701 1700 1691 0
-1701 -1700 -1691 0
1701 -1700 1691 0
1701 1700 -1691 0
-1702 1701 1692 0
-1702 -1701 -1692 0
1702 -1701 1692 0
1702 1701 -1692 0
-1703 1702 1693 0
-1703 -1702 -1693 0
1703 -1702 1693 0
1703 1702 -1693 0
-1704 1703 1694 0
-1704 -1703 -1694 0
1704 -1703 1694 0
1704 1703 -1694 0
-1705 1704 1695 0
-1705 -1704 -1695 0
1705 -1704 1695 0
1705 1704 -1695 0
-1706 1705 1696 0
-1706 -1705 -1696 0
1706 -1705 1696 0
1706 1705 -1696 0
-1707 1706 1697 0
-1707 -1706 -1697 0
1707 -1706 1697 0
1707 1706 -1697 0
-1708 1707 1698 0
-1708 -1707 -1698 0
1708 -1707 1698 0
1708 1707 -1698 0
-1709 1708 1699 0
-1709 -1708 -1699 0
1709 -1708 1699 0
1709 1708 -1699 0
-1709 0
-1710 3 0
-1710 45 0
-1710 112 0
1710 -3 -45 -112 0
-1711 7 0
-1711 51 0
-1711 118 0
1711 -7 -51 -118 0
-1712 11 0
-1712 57 0
-1712 124 0
1712 -11 -57 -124 0
-1713 15 0
-1713 63 0
-1713 130 0
1713 -15 -63 -130 0
-1714 19 0
-1714 69 0
-1714 136 0
1714 -19 -69 -136 0
-1715 23 0
-1715 75 0
-1715 142 0
1715 -23 -75 -142 0
-1716 27 0
-1716 81 0
-1716 148 0
1716 -27 -81 -148 0
-1717 31 0
-1717 87 0
-1717 154 0
1717 -31 -87 -154 0
-1718 35 0
-1718 93 0
-1718 160 0
1718 -35 -93 -160 0
-1719 39 0
-1719 99 0
-1719 166 0
1719 -39 -99 -166 0
-1720 43 0
-1720 105 0
-1720 172 0
1720 -43 -105 -172 0
-1721 1710 1711 0
-1721 -1710 -1711 0
1721 -1710 1711 0
1721 1710 -1711 0
-1722 1721 1712 0
-1722 -1721 -1712 0
1722 -1721 1712 0
1722 1721 -1712 0
-1723 1722 1713 0
-1723 -1722 -1713 0
1723 -1722 1713 0
1723 1722 -1713 0
-1724 1723 1714 0
-1724 -1723 -1714 0
1724 -1723 1714 0
1724 1723 -1714 0
-1725 1724 1715 0
-1725 -1724 -1715 0
1725 -1724 1715 0
1725 1724 -1715 0
-1726 1725 1716 0
-1726 -1725 -1716 0
1726 -1725 1716 0
1726 1725 -1716 0
-1727 1726 1717 0
-1727 -1726 -1717 0
1727 -1726 1717 0
1727 1726 -1717 0
-1728 1727 1718 0
-1728 -1727 -1718 0
1728 -1727 1718 0
1728 1727 -1718 0
-1729 1728 1719 0
-1729 -1728 -1719 0
1729 -1728 1719 0
1729 1728 -1719 0
-1730 1729 1720 0
-1730 -1729 -1720 0
1730 -1729 1720 0
1730 1729 -1720 0
-1730 0
-1731 3 0
-1731 45 0
-1731 113 0
1731 -3 -45 -113 0
-1732 7 0
-1732 51 0
-1732 119 0
1732 -7 -51 -119 0
-1733 11 0
-1733 57 0
-1733 125 0
1733 -11 -57 -125 0
-1734 15 0
-1734 63 0
-1734 131 0
1734 -15 -63 -131 0
-1735 19 0
-1735 69 0
-1735 137 0
1735 -19 -69 -137 0
-1736 23 0
-1736 75 0
-1736 143 0
1736 -23 -75 -143 0
-1737 27 0
-1737 81 0
-1737 149 0
1737 -27 -81 -149 0
-1738 31 0
-1738 87 0
-1738 155 0
1738 -31 -87 -155 0
-1739 35 0
-1739 93 0
-1739 161 0
1739 -35 -93 -161 0
-1740 39 0
-1740 99 0
-1740 167 0
1740 -39 -99 -167 0
-1741 43 0
-1741 105 0
-1741 173 0
1741 -43 -105 -173 0
-1742 1731 1732 0
-1742 -1731 -1732 0
1742 -1731 1732 0
1742 1731 -1732 0
-1743 1742 1733 0
-1743 -1742 -1733 0
1743 -1742 1733 0
1743 1742 -1733 0
-1744 1743 1734 0
-1744 -1743 -1734 0
1744 -1743 1734 0
1744 1743 -1734 0
-1745 1744 1735 0
-1745 -1744 -1735 0
1745 -1744 1735 0
1745 1744 -1735 0
-1746 1745 1736 0
-1746 -1745 -1736 0
1746 -1745 1736 0
1746 1745 -1736 0
-1747 1746 1737 0
-1747 -1746 -1737 0
1747 -1746 1737 0
1747 1746 -1737 0
-1748 1747 1738 0
-1748 -1747 -1738 0
1748 -1747 1738 0
1748 1747 -1738 0
-1749 1748 1739 0
-1749 -1748 -1739 0
1749 -1748 1739 0
1749 1748 -1739 0
-1750 1749 1740 0
-1750 -1749 -1740 0
1750 -1749 1740 0
1750 1749 -1740 0
-1751 1750 1741 0
-1751 -1750 -1741 0
1751 -1750 1741 0
1751 1750 -1741 0
-1751 0
-1752 3 0
-1752 45 0
-1752 114 0
1752 -3 -45 -114 0
-1753 7 0
-1753 51 0
-1753 120 0
1753 -7 -51 -120 0
-1754 11 0
-1754 57 0
-1754 126 0
1754 -11 -57 -126 0
-1755 15 0
-1755 63 0
-1755 132 0
1755 -15 -63 -132 0
-1756 19 0
-1756 69 0
-1756 138 0
1756 -19 -69 -138 0
-1757 23 0
-1757 75 0
-1757 144 0
1757 -23 -75 -144 0
-1758 27 0
-1758 81 0
-1758 150 0
1758 -27 -81 -150 0
-1759 31 0
-1759 87 0
-1759 156 0
1759 -31 -87 -156 0
-1760 35 0
-1760 93 0
-1760 162 0
1760 -35 -93 -162 0
-1761 39 0
-1761 99 0
-1761 168 0
1761 -39 -99 -168 0
-1762 43 0
-1762 105 0
-1762 174 0
1762 -43 -105 -174 0
-1763 1752 1753 0
-1763 -1752 -1753 0
1763 -1752 1753 0
1763 1752 -1753 0
-1764 1763 1754 0
-1764 -1763 -1754 0
1764 -1763 1754 0
1764 1763 -1754 0
-1765 1764 1755 0
-1765 -1764 -1755 0
1765 -1764 1755 0
1765 1764 -1755 0
-1766 1765 1756 0
-1766 -1765 -1756 0
1766 -1765 1756 0
1766 1765 -1756 0
-1767 1766 1757 0
-1767 -1766 -1757 0
1767 -1766 1757 0
1767 1766 -1757 0
-1768 1767 1758 0
-1768 -1767 -1758 0
1768 -1767 1758 0
1768 1767 -1758 0
-1769 1768 1759 0
-1769 -1768 -1759 0
1769 -1768 1759 0
1769 1768 -1759 0
-1770 1769 1760 0
-1770 -1769 -1760 0
1770 -1769 1760 0
1770 1769 -1760 0
-1771 1770 1761 0
-1771 -1770 -1761 0
1771 -1770 1761 0
1771 1770 -1761 0
-1772 1771 1762 0
-1772 -1771 -1762 0
1772 -1771 1762 0
1772 1771 -1762 0
1772 0
-1773 3 0
-1773 45 0
-1773 115 0
1773 -3 -45 -115 0
-1774 7 0
-1774 51 0
-1774 121 0
1774 -7 -51 -121 0
-1775 11 0
-1775 57 0
-1775 127 0
1775 -11 -57 -127 0
-1776 15 0
-1776 63 0
-1776 133 0
1776 -15 -63 -133 0
-1777 19 0
-1777 69 0
-1777 139 0
1777 -19 -69 -139 0
-1778 23 0
-1778 75 0
-1778 145 0
1778 -23 -75 -145 0
-1779 27 0
-1779 81 0
-1779 151 0
1779 -27 -81 -151 0
-1780 31 0
-1780 87 0
-1780 157 0
1780 -31 -87 -157 0
-1781 35 0
-1781 93 0
-1781 163 0
1781 -35 -93 -163 0
-1782 39 0
-1782 99 0
-1782 169 0
1782 -39 -99 -169 0
-1783 43 0
-1783 105 0
-1783 175 0
1783 -43 -105 -175 0
-1784 1773 1774 0
-1784 -1773 -1774 0
1784 -1773 1774 0
1784 1773 -1774 0
-1785 1784 1775 0
-1785 -1784 -1775 0
1785 -1784 1775 0
1785 1784 -1775 0
-1786 1785 1776 0
-1786 -1785 -1776 0
1786 -1785 1776 0
1786 1785 -1776 0
-1787 1786 1777 0
-1787 -1786 -1777 0
1787 -1786 1777 0
1787 1786 -1777 0
-1788 1787 1778 0
-1788 -1787 -1778 0
1788 -1787 1778 0
1788 1787 -1778 0
-1789 1788 1779 0
-1789 -1788 -1779 0
1789 -1788 1779 0
1789 1788 -1779 0
-1790 1789 1780 0
-1790 -1789 -1780 0
1790 -1789 1780 0
1790 1789 -1780 0
-1791 1790 1781 0
-1791 -1790 -1781 0
1791 -1790 1781 0
1791 1790 -1781 0
-1792 1791 1782 0
-1792 -1791 -1782 0
1792 -1791 1782 0
1792 1791 -1782 0
-1793 1792 1783 0
-1793 -1792 -1783 0
1793 -1792 1783 0
1793 1792 -1783 0
-1793 0
-1794 3 0
-1794 45 0
-1794 116 0
1794 -3 -45 -116 0
-1795 7 0
-1795 51 0
-1795 122 0
1795 -7 -51 -122 0
-1796 11 0
-1796 57 0
-1796 128 0
1796 -11 -57 -128 0
-1797 15 0
-1797 63 0
-1797 134 0
1797 -15 -63 -134 0
-1798 19 0
-1798 69 0
-1798 140 0
1798 -19 -69 -140 0
-1799 23 0
-1799 75 0
-1799 146 0
1799 -23 -75 -146 0
-1800 27 0
-1800 81 0
-1800 152 0
1800 -27 -81 -152 0
-1801 31 0
-1801 87 0
-1801 158 0
1801 -31 -87 -158 0
-1802 35 0
-1802 93 0
-1802 164 0
1802 -35 -93 -164 0
-1803 39 0
-1803 99 0
-1803 170 0
1803 -39 -99 -170 0
-1804 43 0
-1804 105 0
-1804 176 0
1804 -43 -105 -176 0
-1805 1794 1795 0
-1805 -1794 -1795 0
1805 -1794 1795 0
1805 1794 -1795 0
-1806 1805 1796 0
-1806 -1805 -1796 0
1806 -1805 1796 0
1806 1805 -1796 0
-1807 1806 1797 0
-1807 -1806 -1797 0
1807 -1806 1797 0
1807 1806 -1797 0
-1808 1807 1798 0
-1808 -1807 -1798 0
1808 -1807 1798 0
1808 1807 -1798 0
-1809 1808 1799 0
-1809 -1808 -1799 0
1809 -1808 1799 0
1809 1808 -1799 0
-1810 1809 1800 0
-1810 -1809 -1800 0
1810 -1809 1800 0
1810 1809 -1800 0
-1811 1810 1801 0
-1811 -1810 -1801 0
1811 -1810 1801 0
1811 1810 -1801 0
-1812 1811 1802 0
-1812 -1811 -1802 0
1812 -1811 1802 0
1812 1811 -1802 0
-1813 1812 1803 0
-1813 -1812 -1803 0
1813 -1812 1803 0
1813 1812 -1803 0
-1814 1813 1804 0
-1814 -1813 -1804 0
1814 -1813 1804 0
1814 1813 -1804 0
-1814 0
-1815 3 0
-1815 46 0
-1815 111 0
1815 -3 -46 -111 0
-1816 7 0
-1816 52 0
-1816 117 0
1816 -7 -52 -117 0
-1817 11 0
-1817 58 0
-1817 123 0
1817 -11 -58 -123 0
-1818 15 0
-1818 64 0
-1818 129 0
1818 -15 -64 -129 0
-1819 19 0
-1819 70 0
-1819 135 0
1819 -19 -70 -135 0
-1820 23 0
-1820 76 0
-1820 141 0
1820 -23 -76 -141 0
-1821 27 0
-1821 82 0
-1821 147 0
1821 -27 -82 -147 0
-1822 31 0
-1822 88 0
-1822 153 0
1822 -31 -88 -153 0
-1823 35 0
-1823 94 0
-1823 159 0
1823 -35 -94 -159 0
-1824 39 0
-1824 100 0
-1824 165 0
1824 -39 -100 -165 0
-1825 43 0
-1825 106 0
-1825 171 0
1825 -43 -106 -171 0
-1826 1815 1816 0
-1826 -1815 -1816 0
1826 -1815 1816 0
1826 1815 -1816 0
-1827 1826 1817 0
-1827 -1826 -1817 0
1827 -1826 1817 0
1827 1826 -1817 0
-1828 1827 1818 0
-1828 -1827 -1818 0
1828 -1827 1818 0
1828 1827 -1818 0
-1829 1828 1819 0
-1829 -1828 -1819 0
1829 -1828 1819 0
1829 1828 -1819 0
-1830 1829 1820 0
-1830 -1829 -1820 0
1830 -1829 1820 0
1830 1829 -1820 0
-1831 1830 1821 0
-1831 -1830 -1821 0
1831 -1830 1821 0
1831 1830 -1821 0
-1832 1831 1822 0
-1832 -1831 -1822 0
1832 -1831 1822 0
1832 1831 -1822 0
-1833 1832 1823 0
-1833 -1832 -1823 0
1833 -1832 1823 0
1833 1832 -1823 0
-1834 1833 1824 0
-1834 -1833 -1824 0
1834 -1833 1824 0
1834 1833 -1824 0
-1835 1834 1825 0
-1835 -1834 -1825 0
1835 -1834 1825 0
1835 1834 -1825 0
-1835 0
-1836 3 0
-1836 46 0
-1836 112 0
1836 -3 -46 -112 0
-1837 7 0
-1837 52 0
-1837 118 0
1837 -7 -52 -118 0
-1838 11 0
-1838 58 0
-1838 124 0
1838 -11 -58 -124 0
-1839 15 0
-1839 64 0
-1839 130 0
1839 -15 -64 -130 0
-1840 19 0
-1840 70 0
-1840 136 0
1840 -19 -70 -136 0
-1841 23 0
-1841 76 0
-1841 142 0
1841 -23 -76 -142 0
-1842 27 0
-1842 82 0
-1842 148 0
1842 -27 -82 -148 0
-1843 31 0
-1843 88 0
-1843 154 0
1843 -31 -88 -154 0
-1844 35 0
-1844 94 0
-1844 160 0
1844 -35 -94 -160 0
-1845 39 0
-1845 100 0
-1845 166 0
1845 -39 -100 -166 0
-1846 43 0
-1846 106 0
-1846 172 0
1846 -43 -106 -172 0
-1847 1836 1837 0
-1847 -1836 -1837 0
1847 -1836 1837 0
1847 1836 -1837 0
-1848 1847 1838 0
-1848 -1847 -1838 0
1848 -1847 1838 0
1848 1847 -1838 0
-1849 1848 1839 0
-1849 -1848 -1839 0
1849 -1848 1839 0
1849 1848 -1839 0
-1850 1849 1840 0
-1850 -1849 -1840 0
1850 -1849 1840 0
1850 1849 -1840 0
-1851 1850 1841 0
-1851 -1850 -1841 0
1851 -1850 1841 0
1851 1850 -1841 0
-1852 1851 1842 0
-1852 -1851 -1842 0
1852 -1851 1842 0
1852 1851 -1842 0
-1853 1852 1843 0
-1853 -1852 -1843 0
1853 -1852 1843 0
1853 1852 -1843 0
-1854 1853 1844 0
-1854 -1853 -1844 0
1854 -1853 1844 0
1854 1853 -1844 0
-1855 1854 1845 0
-1855 -1854 -1845 0
1855 -1854 1845 0
1855 1854 -1845 0
-1856 1855 1846 0
-1856 -1855 -1846 0
1856 -1855 1846 0
1856 1855 -1846 0
-1856 0
-1857 3 0
-1857 46 0
-1857 113 0
1857 -3 -46 -113 0
-1858 7 0
-1858 52 0
-1858 119 0
1858 -7 -52 -119 0
-1859 11 0
-1859 58 0
-1859 125 0
1859 -11 -58 -125 0
-1860 15 0
-1860 64 0
-1860 131 0
1860 -15 -64 -131 0
-1861 19 0
-1861 70 0
-1861 137 0
1861 -19 -70 -137 0
-1862 23 0
-1862 76 0
-1862 143 0
1862 -23 -76 -143 0
-1863 27 0
-1863 82 0
-1863 149 0
1863 -27 -82 -149 0
-1864 31 0
-1864 88 0
-1864 155 0
1864 -31 -88 -155 0
-1865 35 0
-1865 94 0
-1865 161 0
1865 -35 -94 -161 0
-1866 39 0
-1866 100 0
-1866 167 0
1866 -39 -100 -167 0
-1867 43 0
-1867 106 0
-1867 173 0
1867 -43 -106 -173 0
-1868 1857 1858 0
-1868 -1857 -1858 0
1868 -1857 1858 0
1868 1857 -1858 0
-1869 1868 1859 0
-1869 -1868 -1859 0
1869 -1868 1859 0
1869 1868 -1859 0
-1870 1869 1860 0
-1870 -1869 -1860 0
1870 -1869 1860 0
1870 1869 -1860 0
-1871 1870 1861 0
-1871 -1870 -1861 0
1871 -1870 1861 0
1871 1870 -1861 0
-1872 1871 1862 0
-1872 -1871 -1862 0
1872 -1871 1862 0
1872 1871 -1862 0
-1873 1872 1863 0
-1873 -1872 -1863 0
1873 -1872 1863 0
1873 1872 -1863 0
-1874 1873 1864 0
-1874 -1873 -1864 0
1874 -1873 1864 0
1874 1873 -1864 0
-1875 1874 1865 0
-1875 -1874 -1865 0
1875 -1874 1865 0
1875 1874 -1865 0
-1876 1875 1866 0
-1876 -1875 -1866 0
1876 -1875 1866 0
1876 1875 -1866 0
-1877 1876 1867 0
-1877 -1876 -1867 0
1877 -1876 1867 0
1877 1876 -1867 0
-1877 0
-1878 3 0
-1878 46 0
-1878 114 0
1878 -3 -46 -114 0
-1879 7 0
-1879 52 0
-1879 120 0
1879 -7 -52 -120 0
-1880 11 0
-1880 58 0
-1880 126 0
1880 -11 -58 -126 0
-1881 15 0
-1881 64 0
-1881 132 0
1881 -15 -64 -132 0
-1882 19 0
-1882 70 0
-1882 138 0
1882 -19 -70 -138 0
-1883 23 0
-1883 76 0
-1883 144 0
1883 -23 -76 -144 0
-1884 27 0
-1884 82 0
-1884 150 0
1884 -27 -82 -150 0
-1885 31 0
-1885 88 0
-1885 156 0
1885 -31 -88 -156 0
-1886 35 0
-1886 94 0
-1886 162 0
1886 -35 -94 -162 0
-1887 39 0
-1887 100 0
-1887 168 0
1887 -39 -100 -168 0
-1888 43 0
-1888 106 0
-1888 174 0
1888 -43 -106 -174 0
-1889 1878 1879 0
-1889 -1878 -1879 0
1889 -1878 1879 0
1889 1878 -1879 0
-1890 1889 1880 0
-1890 -1889 -1880 0
1890 -1889 1880 0
1890 1889 -1880 0
-1891 1890 1881 0
-1891 -1890 -1881 0
1891 -1890 1881 0
1891 1890 -1881 0
-1892 1891 1882 0
-1892 -1891 -1882 0
1892 -1891 1882 0
1892 1891 -1882 0
-1893 1892 1883 0
-1893 -1892 -1883 0
1893 -1892 1883 0
1893 1892 -1883 0
-1894 1893 1884 0
-1894 -1893 -1884 0
1894 -1893 1884 0
1894 1893 -1884 0
-1895 1894 1885 0
-1895 -1894 -1885 0
1895 -1894 1885 0
1895 1894 -1885 0
-1896 1895 1886 0
-1896 -1895 -1886 0
1896 -1895 1886 0
1896 1895 -1886 0
-1897 1896 1887 0
-1897 -1896 -1887 0
1897 -1896 1887 0
1897 1896 -1887 0
-1898 1897 1888 0
-1898 -1897 -1888 0
1898 -1897 1888 0
1898 1897 -1888 0
-1898 0
-1899 3 0
-1899 46 0
-1899 115 0
1899 -3 -46 -115 0
-1900 7 0
-1900 52 0
-1900 121 0
1900 -7 -52 -121 0
-1901 11 0
-1901 58 0
-1901 127 0
1901 -11 -58 -127 0
-1902 15 0
-1902 64 0
-1902 133 0
1902 -15 -64 -133 0
-1903 19 0
-1903 70 0
-1903 139 0
1903 -19 -70 -139 0
-1904 23 0
-1904 76 0
-1904 145 0
1904 -23 -76 -145 0
-1905 27 0
-1905 82 0
-1905 151 0
1905 -27 -82 -151 0
-1906 31 0
-1906 88 0
-1906 157 0
1906 -31 -88 -157 0
-1907 35 0
-1907 94 0
-1907 163 0
1907 -35 -94 -163 0
-1908 39 0
-1908 100 0
-1908 169 0
1908 -39 -100 -169 0
-1909 43 0
-1909 106 0
-1909 175 0
1909 -43 -106 -175 0
-1910 1899 1900 0
-1910 -1899 -1900 0
1910 -1899 1900 0
1910 1899 -1900 0
-1911 1910 1901 0
-1911 -1910 -1901 0
1911 -1910 1901 0
1911 1910 -1901 0
-1912 1911 1902 0
-1912 -1911 -1902 0
1912 -1911 1902 0
1912 1911 -1902 0
-1913 1912 1903 0
-1913 -1912 -1903 0
1913 -1912 1903 0
1913 1912 -1903 0
-1914 1913 1904 0
-1914 -1913 -1904 0
1914 -1913 1904 0
1914 1913 -1904 0
-1915 1914 1905 0
-1915 -1914 -1905 0
1915 -1914 1905 0
1915 1914 -1905 0
-1916 1915 1906 0
-1916 -1915 -1906 0
1916 -1915 1906 0
1916 1915 -1906 0
-1917 1916 1907 0
-1917 -1916 -1907 0
1917 -1916 1907 0
1917 1916 -1907 0
-1918 1917 1908 0
-1918 -1917 -1908 0
1918 -1917 1908 0
1918 1917 -1908 0
-1919 1918 1909 0
-1919 -1918 -1909 0
1919 -1918 1909 0
1919 1918 -1909 0
1919 0
-1920 3 0
-1920 46 0
-1920 116 0
1920 -3 -46 -116 0
-1921 7 0
-1921 52 0
-1921 122 0
1921 -7 -52 -122 0
-1922 11 0
-1922 58 0
-1922 128 0
1922 -11 -58 -128 0
-1923 15 0
-1923 64 0
-1923 134 0
1923 -15 -64 -134 0
-1924 19 0
-1924 70 0
-1924 140 0
1924 -19 -70 -140 0
-1925 23 0
-1925 76 0
-1925 146 0
1925 -23 -76 -146 0
-1926 27 0
-1926 82 0
-1926 152 0
1926 -27 -82 -152 0
-1927 31 0
-1927 88 0
-1927 158 0
1927 -31 -88 -158 0
-1928 35 0
-1928 94 0
-1928 164 0
1928 -35 -94 -164 0
-1929 39 0
-1929 100 0
-1929 170 0
1929 -39 -100 -170 0
-1930 43 0
-1930 106 0
-1930 176 0
1930 -43 -106 -176 0
-1931 1920 1921 0
-1931 -1920 -1921 0
1931 -1920 1921 0
1931 1920 -1921 0
-1932 1931 1922 0
-1932 -1931 -1922 0
1932 -1931 1922 0
1932 1931 -1922 0
-1933 1932 1923 0
-1933 -1932 -1923 0
1933 -1932 1923 0
1933 1932 -1923 0
-1934 1933 1924 0
-1934 -1933 -1924 0
1934 -1933 1924 0
1934 1933 -1924 0
-1935 1934 1925 0
-1935 -1934 -1925 0
1935 -1934 1925 0
1935 1934 -1925 0
-1936 1935 1926 0
-1936 -1935 -1926 0
1936 -1935 1926 0
1936 1935 -1926 0
-1937 1936 1927 0
-1937 -1936 -1927 0
1937 -1936 1927 0
1937 1936 -1927 0
-1938 1937 1928 0
-1938 -1937 -1928 0
1938 -1937 1928 0
1938 1937 -1928 0
-1939 1938 1929 0
-1939 -1938 -1929 0
1939 -1938 1929 0
1939 1938 -1929 0
-1940 1939 1930 0
-1940 -1939 -1930 0
1940 -1939 1930 0
1940 1939 -1930 0
-1940 0
-1941 3 0
-1941 47 0
-1941 111 0
1941 -3 -47 -111 0
-1942 7 0
-1942 53 0
-1942 117 0
1942 -7 -53 -117 0
-1943 11 0
-1943 59 0
-1943 123 0
1943 -11 -59 -123 0
-1944 15 0
-1944 65 0
-1944 129 0
1944 -15 -65 -129 0
-1945 19 0
-1945 71 0
-1945 135 0
1945 -19 -71 -135 0
-1946 23 0
-1946 77 0
-1946 141 0
1946 -23 -77 -141 0
-1947 27 0
-1947 83 0
-1947 147 0
1947 -27 -83 -147 0
-1948 31 0
-1948 89 0
-1948 153 0
1948 -31 -89 -153 0
-1949 35 0
-1949 95 0
-1949 159 0
1949 -35 -95 -159 0
-1950 39 0
-1950 101 0
-1950 165 0
1950 -39 -101 -165 0
-1951 43 0
-1951 107 0
-1951 171 0
1951 -43 -107 -171 0
-1952 1941 1942 0
-1952 -1941 -1942 0
1952 -1941 1942 0
1952 1941 -1942 0
-1953 1952 1943 0
-1953 -1952 -1943 0
1953 -1952 1943 0
1953 1952 -1943 0
-1954 1953 1944 0
-1954 -1953 -1944 0
1954 -1953 1944 0
1954 1953 -1944 0
-1955 1954 1945 0
-1955 -1954 -1945 0
1955 -1954 1945 0
1955 1954 -1945 0
-1956 1955 1946 0
-1956 -1955 -1946 0
1956 -1955 1946 0
1956 1955 -1946 0
-1957 1956 1947 0
-1957 -1956 -1947 0
1957 -1956 1947 0
1957 1956 -1947 0
-1958 1957 1948 0
-1958 -1957 -1948 0
1958 -1957 1948 0
1958 1957 -1948 0
-1959 1958 1949 0
-1959 -1958 -1949 0
1959 -1958 1949 0
1959 1958 -1949 0
-1960 1959 1950 0
-1960 -1959 -1950 0
1960 -1959 1950 0
1960 1959 -1950 0
-1961 1960 1951 0
-1961 -1960 -1951 0
1961 -1960 1951 0
1961 1960 -1951 0
-1961 0
-1962 3 0
-1962 47 0
-1962 112 0
1962 -3 -47 -112 0
-1963 7 0
-1963 53 0
-1963 118 0
1963 -7 -53 -118 0
-1964 11 0
-1964 59 0
-1964 124 0
1964 -11 -59 -124 0
-1965 15 0
-1965 65 0
-1965 130 0
1965 -15 -65 -130 0
-1966 19 0
-1966 71 0
-1966 136 0
1966 -19 -71 -136 0
-1967 23 0
-1967 77 0
-1967 142 0
1967 -23 -77 -142 0
-1968 27 0
-1968 83 0
-1968 148 0
1968 -27 -83 -148 0
-1969 31 0
-1969 89 0
-1969 154 0
1969 -31 -89 -154 0
-1970 35 0
-1970 95 0
-1970 160 0
1970 -35 -95 -160 0
-1971 39 0
-1971 101 0
-1971 166 0
1971 -39 -101 -166 0
-1972 43 0
-1972 107 0
-1972 172 0
1972 -43 -107 -172 0
-1973 1962 1963 0
-1973 -1962 -1963 0
1973 -1962 1963 0
1973 1962 -1963 0
-1974 1973 1964 0
-1974 -1973 -1964 0
1974 -1973 1964 0
1974 1973 -1964 0
-1975 1974 1965 0
-1975 -1974 -1965 0
1975 -1974 1965 0
1975 1974 -1965 0
-1976 1975 1966 0
-1976 -1975 -1966 0
1976 -1975 1966 0
1976 1975 -1966 0
-1977 1976 1967 0
-1977 -1976 -1967 0
1977 -1976 1967 0
1977 1976 -1967 0
-1978 1977 1968 0
-1978 -1977 -1968 0
1978 -1977 1968 0
1978 1977 -1968 0
-1979 1978 1969 0
-1979 -1978 -1969 0
1979 -1978 1969 0
1979 1978 -1969 0
-1980 1979 1970 0
-1980 -1979 -1970 0
1980 -1979 1970 0
1980 1979 -1970 0
-1981 1980 1971 0
-1981 -1980 -1971 0
1981 -1980 1971 0
1981 1980 -1971 0
-1982 1981 1972 0
-1982 -1981 -1972 0
1982 -1981 1972 0
1982 1981 -1972 0
-1982 0
-1983 3 0
-1983 47 0
-1983 113 0
1983 -3 -47 -113 0
-1984 7 0
-1984 53 0
-1984 119 0
1984 -7 -53 -119 0
-1985 11 0
-1985 59 0
-1985 125 0
1985 -11 -59 -125 0
-1986 15 0
-1986 65 0
-1986 131 0
1986 -15 -65 -131 0
-1987 19 0
-1987 71 0
-1987 137 0
1987 -19 -71 -137 0
-1988 23 0
-1988 77 0
-1988 143 0
1988 -23 -77 -143 0
-1989 27 0
-1989 83 0
-1989 149 0
1989 -27 -83 -149 0
-1990 31 0
-1990 89 0
-1990 155 0
1990 -31 -89 -155 0
-1991 35 0
-1991 95 0
-1991 161 0
1991 -35 -95 -161 0
-1992 39 0
-1992 101 0
-1992 167 0
1992 -39 -101 -167 0
-1993 43 0
-1993 107 0
-1993 173 0
1993 -43 -107 -173 0
-1994 1983 1984 0
-1994 -1983 -1984 0
1994 -1983 1984 0
1994 1983 -1984 0
-1995 1994 1985 0
-1995 -1994 -1985 0
1995 -1994 1985 0
1995 1994 -1985 0
-1996 1995 1986 0
-1996 -1995 -1986 0
1996 -1995 1986 0
1996 1995 -1986 0
-1997 1996 1987 0
-1997 -1996 -1987 0
1997 -1996 1987 0
1997 1996 -1987 0
-1998 1997 1988 0
-1998 -1997 -1988 0
1998 -1997 1988 0
1998 1997 -1988 0
-1999 1998 1989 0
-1999 -1998 -1989 0
1999 -1998 1989 0
1999 1998 -1989 0
-2000 1999 1990 0
-2000 -1999 -1990 0
2000 -1999 1990 0
2000 1999 -1990 0
-2001 2000 1991 0
-2001 -2000 -1991 0
2001 -2000 1991 0
2001 2000 -1991 0
-2002 2001 1992 0
-2002 -2001 -1992 0
2002 -2001 1992 0
2002 2001 -1992 0
-2003 2002 1993 0
-2003 -2002 -1993 0
2003 -2002 1993 0
2003 2002 -1993 0
-2003 0
-2004 3 0
-2004 47 0
-2004 114 0
2004 -3 -47 -114 0
-2005 7 0
-2005 53 0
-2005 120 0
2005 -7 -53 -120 0
-2006 11 0
-2006 59 0
-2006 126 0
2006 -11 -59 -126 0
-2007 15 0
-2007 65 0
-2007 132 0
2007 -15 -65 -132 0
-2008 19 0
-2008 71 0
-2008 138 0
2008 -19 -71 -138 0
-2009 23 0
-2009 77 0
-2009 144 0
2009 -23 -77 -144 0
-2010 27 0
-2010 83 0
-2010 150 0
2010 -27 -83 -150 0
-2011 31 0
-2011 89 0
-2011 156 0
2011 -31 -89 -156 0
-2012 35 0
-2012 95 0
-2012 162 0
2012 -35 -95 -162 0
-2013 39 0
-2013 101 0
-2013 168 0
2013 -39 -101 -168 0
-2014 43 0
-2014 107 0
-2014 174 0
2014 -43 -107 -174 0
-2015 2004 2005 0
-2015 -2004 -2005 0
2015 -2004 2005 0
2015 2004 -2005 0
-2016 2015 2006 0
-2016 -2015 -2006 0
2016 -2015 2006 0
2016 2015 -2006 0
-2017 2016 2007 0
-2017 -2016 -2007 0
2017 -2016 2007 0
2017 2016 -2007 0
-2018 2017 2008 0
-2018 -2017 -2008 0
2018 -2017 2008 0
2018 2017 -2008 0
-2019 2018 2009 0
-2019 -2018 -2009 0
2019 -2018 2009 0
2019 2018 -2009 0
-2020 2019 2010 0
-2020 -2019 -2010 0
2020 -2019 2010 0
2020 2019 -2010 0
-2021 2020 2011 0
-2021 -2020 -2011 0
2021 -2020 2011 0
2021 2020 -2011 0
-2022 2021 2012 0
-2022 -2021 -2012 0
2022 -2021 2012 0
2022 2021 -2012 0
-2023 2022 2013 0
-2023 -2022 -2013 0
2023 -2022 2013 0
2023 2022 -2013 0
-2024 2023 2014 0
-2024 -2023 -2014 0
2024 -2023 2014 0
2024 2023 -2014 0
-2024 0
-2025 3 0
-2025 47 0
-2025 115 0
2025 -3 -47 -115 0
-2026 7 0
-2026 53 0
-2026 121 0
2026 -7 -53 -121 0
-2027 11 0
-2027 59 0
-2027 127 0
2027 -11 -59 -127 0
-2028 15 0
-2028 65 0
-2028 133 0
2028 -15 -65 -133 0
-2029 19 0
-2029 71 0
-2029 139 0
2029 -19 -71 -139 0
-2030 23 0
-2030 77 0
-2030 145 0
2030 -23 -77 -145 0
-2031 27 0
-2031 83 0
-2031 151 0
2031 -27 -83 -151 0
-2032 31 0
-2032 89 0
-2032 157 0
2032 -31 -89 -157 0
-2033 35 0
-2033 95 0
-2033 163 0
2033 -35 -95 -163 0
-2034 39 0
-2034 101 0
-2034 169 0
2034 -39 -101 -169 0
-2035 43 0
-2035 107 0
-2035 175 0
2035 -43 -107 -175 0
-2036 2025 2026 0
-2036 -2025 -2026 0
2036 -2025 2026 0
2036 2025 -2026 0
-2037 2036 2027 0
-2037 -2036 -2027 0
2037 -2036 2027 0
2037 2036 -2027 0
-2038 2037 2028 0
-2038 -2037 -2028 0
2038 -2037 2028 0
2038 2037 -2028 0
-2039 2038 2029 0
-2039 -2038 -2029 0
2039 -2038 2029 0
2039 2038 -2029 0
-2040 2039 2030 0
-2040 -2039 -2030 0
2040 -2039 2030 0
2040 2039 -2030 0
-2041 2040 2031 0
-2041 -2040 -2031 0
2041 -2040 2031 0
2041 2040 -2031 0
-2042 2041 2032 0
-2042 -2041 -2032 0
2042 -2041 2032 0
2042 2041 -2032 0
-2043 2042 2033 0
-2043 -2042 -2033 0
2043 -2042 2033 0
2043 2042 -2033 0
-2044 2043 2034 0
-2044 -2043 -2034 0
2044 -2043 2034 0
2044 2043 -2034 0
-2045 2044 2035 0
-2045 -2044 -2035 0
2045 -2044 2035 0
2045 2044 -2035 0
-2045 0
-2046 3 0
-2046 47 0
-2046 116 0
2046 -3 -47 -116 0
-2047 7 0
-2047 53 0
-2047 122 0
2047 -7 -53 -122 0
-2048 11 0
-2048 59 0
-2048 128 0
2048 -11 -59 -128 0
-2049 15 0
-2049 65 0
-2049 134 0
2049 -15 -65 -134 0
-2050 19 0
-2050 71 0
-2050 140 0
2050 -19 -71 -140 0
-2051 23 0
-2051 77 0
-2051 146 0
2051 -23 -77 -146 0
-2052 27 0
-2052 83 0
-2052 152 0
2052 -27 -83 -152 0
-2053 31 0
-2053 89 0
-2053 158 0
2053 -31 -89 -158 0
-2054 35 0
-2054 95 0
-2054 164 0
2054 -35 -95 -164 0
-2055 39 0
-2055 101 0
-2055 170 0
2055 -39 -101 -170 0
-2056 43 0
-2056 107 0
-2056 176 0
2056 -43 -107 -176 0
-2057 2046 2047 0
-2057 -2046 -2047 0
2057 -2046 2047 0
2057 2046 -2047 0
-2058 2057 2048 0
-2058 -2057 -2048 0
2058 -2057 2048 0
2058 2057 -2048 0
-2059 2058 2049 0
-2059 -2058 -2049 0
2059 -2058 2049 0
2059 2058 -2049 0
-2060 2059 2050 0
-2060 -2059 -2050 0
2060 -2059 2050 0
2060 2059 -2050 0
-2061 2060 2051 0
-2061 -2060 -2051 0
2061 -2060 2051 0
2061 2060 -2051 0
-2062 2061 2052 0
-2062 -2061 -2052 0
2062 -2061 2052 0
2062 2061 -2052 0
-2063 2062 2053 0
-2063 -2062 -2053 0
2063 -2062 2053 0
2063 2062 -2053 0
-2064 2063 2054 0
-2064 -2063 -2054 0
2064 -2063 2054 0
2064 2063 -2054 0
-2065 2064 2055 0
-2065 -2064 -2055 0
2065 -2064 2055 0
2065 2064 -2055 0
-2066 2065 2056 0
-2066 -2065 -2056 0
2066 -2065 2056 0
2066 2065 -2056 0
2066 0
-2067 3 0
-2067 48 0
-2067 111 0
2067 -3 -48 -111 0
-2068 7 0
-2068 54 0
-2068 117 0
2068 -7 -54 -117 0
-2069 11 0
-2069 60 0
-2069 123 0
2069 -11 -60 -123 0
-2070 15 0
-2070 66 0
-2070 129 0
2070 -15 -66 -129 0
-2071 19 0
-2071 72 0
-2071 135 0
2071 -19 -72 -135 0
-2072 23 0
-2072 78 0
-2072 141 0
2072 -23 -78 -141 0
-2073 27 0
-2073 84 0
-2073 147 0
2073 -27 -84 -147 0
-2074 31 0
-2074 90 0
-2074 153 0
2074 -31 -90 -153 0
-2075 35 0
-2075 96 0
-2075 159 0
2075 -35 -96 -159 0
-2076 39 0
-2076 102 0
-2076 165 0
2076 -39 -102 -165 0
-2077 43 0
-2077 108 0
-2077 171 0
2077 -43 -108 -171 0
-2078 2067 2068 0
-2078 -2067 -2068 0
2078 -2067 2068 0
2078 2067 -2068 0
-2079 2078 2069 0
-2079 -2078 -2069 0
2079 -2078 2069 0
2079 2078 -2069 0
-2080 2079 2070 0
-2080 -2079 -2070 0
2080 -2079 2070 0
2080 2079 -2070 0
-2081 2080 2071 0
-2081 -2080 -2071 0
2081 -2080 2071 0
2081 2080 -2071 0
-2082 2081 2072 0
-2082 -2081 -2072 0
2082 -2081 2072 0
2082 2081 -2072 0
-2083 2082 2073 0
-2083 -2082 -2073 0
2083 -2082 2073 0
2083 2082 -2073 0
-2084 2083 2074 0
-2084 -2083 -2074 0
2084 -2083 2074 0
2084 2083 -2074 0
-2085 2084 2075 0
-2085 -2084 -2075 0
2085 -2084 2075 0
2085 2084 -2075 0
-2086 2085 2076 0
-2086 -2085 -2076 0
2086 -2085 2076 0
2086 2085 -2076 0
-2087 2086 2077 0
-2087 -2086 -2077 0
2087 -2086 2077 0
2087 2086 -2077 0
-2087 0
-2088 3 0
-2088 48 0
-2088 112 0
2088 -3 -48 -112 0
-2089 7 0
-2089 54 0
-2089 118 0
2089 -7 -54 -118 0
-2090 11 0
-2090 60 0
-2090 124 0
2090 -11 -60 -124 0
-2091 15 0
-2091 66 0
-2091 130 0
2091 -15 -66 -130 0
-2092 19 0
-2092 72 0
-2092 136 0
2092 -19 -72 -136 0
-2093 23 0
-2093 78 0
-2093 142 0
2093 -23 -78 -142 0
-2094 27 0
-2094 84 0
-2094 148 0
2094 -27 -84 -148 0
-2095 31 0
-2095 90 0
-2095 154 0
2095 -31 -90 -154 0
-2096 35 0
-2096 96 0
-2096 160 0
2096 -35 -96 -160 0
-2097 39 0
-2097 102 0
-2097 166 0
2097 -39 -102 -166 0
-2098 43 0
-2098 108 0
-2098 172 0
2098 -43 -108 -172 0
-2099 2088 2089 0
-2099 -2088 -2089 0
2099 -2088 2089 0
2099 2088 -2089 0
-2100 2099 2090 0
-2100 -2099 -2090 0
2100 -2099 2090 0
2100 2099 -2090 0
-2101 2100 2091 0
-2101 -2100 -2091 0
2101 -2100 2091 0
2101 2100 -2091 0
-2102 2101 2092 0
-2102 -2101 -2092 0
2102 -2101 2092 0
2102 2101 -2092 0
-2103 2102 2093 0
-2103 -2102 -2093 0
2103 -2102 2093 0
2103 2102 -2093 0
-2104 2103 2094 0
-2104 -2103 -2094 0
2104 -2103 2094 0
2104 2103 -2094 0
-2105 2104 2095 0
-2105 -2104 -2095 0
2105 -2104 2095 0
2105 2104 -2095 0
-2106 2105 2096 0
-2106 -2105 -2096 0
2106 -2105 2096 0
2106 2105 -2096 0
-2107 2106 2097 0
-2107 -2106 -2097 0
2107 -2106 2097 0
2107 2106 -2097 0
-2108 2107 2098 0
-2108 -2107 -2098 0
2108 -2107 2098 0
2108 2107 -2098 0
-2108 0
-2109 3 0
-2109 48 0
-2109 113 0
2109 -3 -48 -113 0
-2110 7 0
-2110 54 0
-2110 119 0
2110 -7 -54 -119 0
-2111 11 0
-2111 60 0
-2111 125 0
2111 -11 -60 -125 0
-2112 15 0
-2112 66 0
-2112 131 0
2112 -15 -66 -131 0
-2113 19 0
-2113 72 0
-2113 137 0
2113 -19 -72 -137 0
-2114 23 0
-2114 78 0
-2114 143 0
2114 -23 -78 -143 0
-2115 27 0
-2115 84 0
-2115 149 0
2115 -27 -84 -149 0
-2116 31 0
-2116 90 0
-2116 155 0
2116 -31 -90 -155 0
-2117 35 0
-2117 96 0
-2117 161 0
2117 -35 -96 -161 0
-2118 39 0
-2118 102 0
-2118 167 0
2118 -39 -102 -167 0
-2119 43 0
-2119 108 0
-2119 173 0
2119 -43 -108 -173 0
-2120 2109 2110 0
-2120 -2109 -2110 0
2120 -2109 2110 0
2120 2109 -2110 0
-2121 2120 2111 0
-2121 -2120 -2111 0
2121 -2120 2111 0
2121 2120 -2111 0
-2122 2121 2112 0
-2122 -2121 -2112 0
2122 -2121 2112 0
2122 2121 -2112 0
-2123 2122 2113 0
-2123 -2122 -2113 0
2123 -2122 2113 0
2123 2122 -2113 0
-2124 2123 2114 0
-2124 -2123 -2114 0
2124 -2123 2114 0
2124 2123 -2114 0
-2125 2124 2115 0
-2125 -2124 -2115 0
2125 -2124 2115 0
2125 2124 -2115 0
-2126 2125 2116 0
-2126 -2125 -2116 0
2126 -2125 2116 0
2126 2125 -2116 0
-2127 2126 2117 0
-2127 -2126 -2117 0
2127 -2126 2117 0
2127 2126 -2117 0
-2128 2127 2118 0
-2128 -2127 -2118 0
2128 -2127 2118 0
2128 2127 -2118 0
-2129 2128 2119 0
-2129 -2128 -2119 0
2129 -2128 2119 0
2129 2128 -2119 0
-2129 0
-2130 3 0
-2130 48 0
-2130 114 0
2130 -3 -48 -114 0
-2131 7 0
-2131 54 0
-2131 120 0
2131 -7 -54 -120 0
-2132 11 0
-2132 60 0
-2132 126 0
2132 -11 -60 -126 0
-2133 15 0
-2133 66 0
-2133 132 0
2133 -15 -66 -132 0
-2134 19 0
-2134 72 0
-2134 138 0
2134 -19 -72 -138 0
-2135 23 0
-2135 78 0
-2135 144 0
2135 -23 -78 -144 0
-2136 27 0
-2136 84 0
-2136 150 0
2136 -27 -84 -150 0
-2137 31 0
-2137 90 0
-2137 156 0
2137 -31 -90 -156 0
-2138 35 0
-2138 96 0
-2138 162 0
2138 -35 -96 -162 0
-2139 39 0
-2139 102 0
-2139 168 0
2139 -39 -102 -168 0
-2140 43 0
-2140 108 0
-2140 174 0
2140 -43 -108 -174 0
-2141 2130 2131 0
-2141 -2130 -2131 0
2141 -2130 2131 0
2141 2130 -2131 0
-2142 2141 2132 0
-2142 -2141 -2132 0
2142 -2141 2132 0
2142 2141 -2132 0
-2143 2142 2133 0
-2143 -2142 -2133 0
2143 -2142 2133 0
2143 2142 -2133 0
-2144 2143 2134 0
-2144 -2143 -2134 0
2144 -2143 2134 0
2144 2143 -2134 0
-2145 2144 2135 0
-2145 -2144 -2135 0
2145 -2144 2135 0
2145 2144 -2135 0
-2146 2145 2136 0
-2146 -2145 -2136 0
2146 -2145 2136 0
2146 2145 -2136 0
-2147 2146 2137 0
-2147 -2146 -2137 0
2147 -2146 2137 0
2147 2146 -2137 0
-2148 2147 2138 0
-2148 -2147 -2138 0
2148 -2147 2138 0
2148 2147 -2138 0
-2149 2148 2139 0
-2149 -2148 -2139 0
2149 -2148 2139 0
2149 2148 -2139 0
-2150 2149 2140 0
-2150 -2149 -2140 0
2150 -2149 2140 0
2150 2149 -2140 0
-2150 0
-2151 3 0
-2151 48 0
-2151 115 0
2151 -3 -48 -115 0
-2152 7 0
-2152 54 0
-2152 121 0
2152 -7 -54 -121 0
-2153 11 0
-2153 60 0
-2153 127 0
2153 -11 -60 -127 0
-2154 15 0
-2154 66 0
-2154 133 0
2154 -15 -66 -133 0
-2155 19 0
-2155 72 0
-2155 139 0
2155 -19 -72 -139 0
-2156 23 0
-2156 78 0
-2156 145 0
2156 -23 -78 -145 0
-2157 27 0
-2157 84 0
-2157 151 0
2157 -27 -84 -151 0
-2158 31 0
-2158 90 0
-2158 157 0
2158 -31 -90 -157 0
-2159 35 0
-2159 96 0
-2159 163 0
2159 -35 -96 -163 0
-2160 39 0
-2160 102 0
-2160 169 0
2160 -39 -102 -169 0
-2161 43 0
-2161 108 0
-2161 175 0
2161 -43 -108 -175 0
-2162 2151 2152 0
-2162 -2151 -2152 0
2162 -2151 2152 0
2162 2151 -2152 0
-2163 2162 2153 0
-2163 -2162 -2153 0
2163 -2162 2153 0
2163 2162 -2153 0
-2164 2163 2154 0
-2164 -2163 -2154 0
2164 -2163 2154 0
2164 2163 -2154 0
-2165 2164 2155 0
-2165 -2164 -2155 0
2165 -2164 2155 0
2165 2164 -2155 0
-2166 2165 2156 0
-2166 -2165 -2156 0
2166 -2165 2156 0
2166 2165 -2156 0
-2167 2166 2157 0
-2167 -2166 -2157 0
2167 -2166 2157 0
2167 2166 -2157 0
-2168 2167 2158 0
-2168 -2167 -2158 0
2168 -2167 2158 0
2168 2167 -2158 0
-2169 2168 2159 0
-2169 -2168 -2159 0
2169 -2168 2159 0
2169 2168 -2159 0
-2170 2169 2160 0
-2170 -2169 -2160 0
2170 -2169 2160 0
2170 2169 -2160 0
-2171 2170 2161 0
-2171 -2170 -2161 0
2171 -2170 2161 0
2171 2170 -2161 0
-2171 0
-2172 3 0
-2172 48 0
-2172 116 0
2172 -3 -48 -116 0
-2173 7 0
-2173 54 0
-2173 122 0
2173 -7 -54 -122 0
-2174 11 0
-2174 60 0
-2174 128 0
2174 -11 -60 -128 0
-2175 15 0
-2175 66 0
-2175 134 0
2175 -15 -66 -134 0
-2176 19 0
-2176 72 0
-2176 140 0
2176 -19 -72 -140 0
-2177 23 0
-2177 78 0
-2177 146 0
2177 -23 -78 -146 0
-2178 27 0
-2178 84 0
-2178 152 0
2178 -27 -84 -152 0
-2179 31 0
-2179 90 0
-2179 158 0
2179 -31 -90 -158 0
-2180 35 0
-2180 96 0
-2180 164 0
2180 -35 -96 -164 0
-2181 39 0
-2181 102 0
-2181 170 0
2181 -39 -102 -170 0
-2182 43 0
-2182 108 0
-2182 176 0
2182 -43 -108 -176 0
-2183 2172 2173 0
-2183 -2172 -2173 0
2183 -2172 2173 0
2183 2172 -2173 0
-2184 2183 2174 0
-2184 -2183 -2174 0
2184 -2183 2174 0
2184 2183 -2174 0
-2185 2184 2175 0
-2185 -2184 -2175 0
2185 -2184 2175 0
2185 2184 -2175 0
-2186 2185 2176 0
-2186 -2185 -2176 0
2186 -2185 2176 0
2186 2185 -2176 0
-2187 2186 2177 0
-2187 -2186 -2177 0
2187 -2186 2177 0
2187 2186 -2177 0
-2188 2187 2178 0
-2188 -2187 -2178 0
2188 -2187 2178 0
2188 2187 -2178 0
-2189 2188 2179 0
-2189 -2188 -2179 0
2189 -2188 2179 0
2189 2188 -2179 0
-2190 2189 2180 0
-2190 -2189 -2180 0
2190 -2189 2180 0
2190 2189 -2180 0
-2191 2190 2181 0
-2191 -2190 -2181 0
2191 -2190 2181 0
2191 2190 -2181 0
-2192 2191 2182 0
-2192 -2191 -2182 0
2192 -2191 2182 0
2192 2191 -2182 0
-2192 0
-2193 3 0
-2193 49 0
-2193 111 0
2193 -3 -49 -111 0
-2194 7 0
-2194 55 0
-2194 117 0
2194 -7 -55 -117 0
-2195 11 0
-2195 61 0
-2195 123 0
2195 -11 -61 -123 0
-2196 15 0
-2196 67 0
-2196 129 0
2196 -15 -67 -129 0
-2197 19 0
-2197 73 0
-2197 135 0
2197 -19 -73 -135 0
-2198 23 0
-2198 79 0
-2198 141 0
2198 -23 -79 -141 0
-2199 27 0
-2199 85 0
-2199 147 0
2199 -27 -85 -147 0
-2200 31 0
-2200 91 0
-2200 153 0
2200 -31 -91 -153 0
-2201 35 0
-2201 97 0
-2201 159 0
2201 -35 -97 -159 0
-2202 39 0
-2202 103 0
-2202 165 0
2202 -39 -103 -165 0
-2203 43 0
-2203 109 0
-2203 171 0
2203 -43 -109 -171 0
-2204 2193 2194 0
-2204 -2193 -2194 0
2204 -2193 2194 0
2204 2193 -2194 0
-2205 2204 2195 0
-2205 -2204 -2195 0
2205 -2204 2195 0
2205 2204 -2195 0
-2206 2205 2196 0
-2206 -2205 -2196 0
2206 -2205 2196 0
2206 2205 -2196 0
-2207 2206 2197 0
-2207 -2206 -2197 0
2207 -2206 2197 0
2207 2206 -2197 0
-2208 2207 2198 0
-2208 -2207 -2198 0
2208 -2207 2198 0
2208 2207 -2198 0
-2209 2208 2199 0
-2209 -2208 -2199 0
2209 -2208 2199 0
2209 2208 -2199 0
-2210 2209 2200 0
-2210 -2209 -2200 0
2210 -2209 2200 0
2210 2209 -2200 0
-2211 2210 2201 0
-2211 -2210 -2201 0
2211 -2210 2201 0
2211 2210 -2201 0
-2212 2211 2202 0
-2212 -2211 -2202 0
2212 -2211 2202 0
2212 2211 -2202 0
-2213 2212 2203 0
-2213 -2212 -2203 0
2213 -2212 2203 0
2213 2212 -2203 0
-2213 0
-2214 3 0
-2214 49 0
-2214 112 0
2214 -3 -49 -112 0
-2215 7 0
-2215 55 0
-2215 118 0
2215 -7 -55 -118 0
-2216 11 0
-2216 61 0
-2216 124 0
2216 -11 -61 -124 0
-2217 15 0
-2217 67 0
-2217 130 0
2217 -15 -67 -130 0
-2218 19 0
-2218 73 0
-2218 136 0
2218 -19 -73 -136 0
-2219 23 0
-2219 79 0
-2219 142 0
2219 -23 -79 -142 0
-2220 27 0
-2220 85 0
-2220 148 0
2220 -27 -85 -148 0
-2221 31 0
-2221 91 0
-2221 154 0
2221 -31 -91 -154 0
-2222 35 0
-2222 97 0
-2222 160 0
2222 -35 -97 -160 0
-2223 39 0
-2223 103 0
-2223 166 0
2223 -39 -103 -166 0
-2224 43 0
-2224 109 0
-2224 172 0
2224 -43 -109 -172 0
-2225 2214 2215 0
-2225 -2214 -2215 0
2225 -2214 2215 0
2225 2214 -2215 0
-2226 2225 2216 0
-2226 -2225 -2216 0
2226 -2225 2216 0
2226 2225 -2216 0
-2227 2226 2217 0
-2227 -2226 -2217 0
2227 -2226 2217 0
2227 2226 -2217 0
-2228 2227 2218 0
-2228 -2227 -2218 0
2228 -2227 2218 0
2228 2227 -2218 0
-2229 2228 2219 0
-2229 -2228 -2219 0
2229 -2228 2219 0
2229 2228 -2219 0
-2230 2229 2220 0
-2230 -2229 -2220 0
2230 -2229 2220 0
2230 2229 -2220 0
-2231 2230 2221 0
-2231 -2230 -2221 0
2231 -2230 2221 0
2231 2230 -2221 0
-2232 2231 2222 0
-2232 -2231 -2222 0
2232 -2231 2222 0
2232 2231 -2222 0
-2233 2232 2223 0
-2233 -2232 -2223 0
2233 -2232 2223 0
2233 2232 -2223 0
-2234 2233 2224 0
-2234 -2233 -2224 0
2234 -2233 2224 0
2234 2233 -2224 0
-2234 0
-2235 3 0
-2235 49 0
-2235 113 0
2235 -3 -49 -113 0
-2236 7 0
-2236 55 0
-2236 119 0
2236 -7 -55 -119 0
-2237 11 0
-2237 61 0
-2237 125 0
2237 -11 -61 -125 0
-2238 15 0
-2238 67 0
-2238 131 0
2238 -15 -67 -131 0
-2239 19 0
-2239 73 0
-2239 137 0
2239 -19 -73 -137 0
-2240 23 0
-2240 79 0
-2240 143 0
2240 -23 -79 -143 0
-2241 27 0
-2241 85 0
-2241 149 0
2241 -27 -85 -149 0
-2242 31 0
-2242 91 0
-2242 155 0
2242 -31 -91 -155 0
-2243 35 0
-2243 97 0
-2243 161 0
2243 -35 -97 -161 0
-2244 39 0
-2244 103 0
-2244 167 0
2244 -39 -103 -167 0
-2245 43 0
-2245 109 0
-2245 173 0
2245 -43 -109 -173 0
-2246 2235 2236 0
-2246 -2235 -2236 0
2246 -2235 2236 0
2246 2235 -2236 0
-2247 2246 2237 0
-2247 -2246 -2237 0
2247 -2246 2237 0
2247 2246 -2237 0
-2248 2247 2238 0
-2248 -2247 -2238 0
2248 -2247 2238 0
2248 2247 -2238 0
-2249 2248 2239 0
-2249 -2248 -2239 0
2249 -2248 2239 0
2249 2248 -2239 0
-2250 2249 2240 0
-2250 -2249 -2240 0
2250 -2249 2240 0
2250 2249 -2240 0
-2251 2250 2241 0
-2251 -2250 -2241 0
2251 -2250 2241 0
2251 2250 -2241 0
-2252 2251 2242 0
-2252 -2251 -2242 0
2252 -2251 2242 0
2252 2251 -2242 0
-2253 2252 2243 0
-2253 -2252 -2243 0
2253 -2252 2243 0
2253 2252 -2243 0
-2254 2253 2244 0
-2254 -2253 -2244 0
2254 -2253 2244 0
2254 2253 -2244 0
-2255 2254 2245 0
-2255 -2254 -2245 0
2255 -2254 2245 0
2255 2254 -2245 0
-2255 0
-2256 3 0
-2256 49 0
-2256 114 0
2256 -3 -49 -114 0
-2257 7 0
-2257 55 0
-2257 120 0
2257 -7 -55 -120 0
-2258 11 0
-2258 61 0
-2258 126 0
2258 -11 -61 -126 0
-2259 15 0
-2259 67 0
-2259 132 0
2259 -15 -67 -132 0
-2260 19 0
-2260 73 0
-2260 138 0
2260 -19 -73 -138 0
-2261 23 0
-2261 79 0
-2261 144 0
2261 -23 -79 -144 0
-2262 27 0
-2262 85 0
-2262 150 0
2262 -27 -85 -150 0
-2263 31 0
-2263 91 0
-2263 156 0
2263 -31 -91 -156 0
-2264 35 0
-2264 97 0
-2264 162 0
2264 -35 -97 -162 0
-2265 39 0
-2265 103 0
-2265 168 0
2265 -39 -103 -168 0
-2266 43 0
-2266 109 0
-2266 174 0
2266 -43 -109 -174 0
-2267 2256 2257 0
-2267 -2256 -2257 0
2267 -2256 2257 0
2267 2256 -2257 0
-2268 2267 2258 0
-2268 -2267 -2258 0
2268 -2267 2258 0
2268 2267 -2258 0
-2269 2268 2259 0
-2269 -2268 -2259 0
2269 -2268 2259 0
2269 2268 -2259 0
-2270 2269 2260 0
-2270 -2269 -2260 0
2270 -2269 2260 0
2270 2269 -2260 0
-2271 2270 2261 0
-2271 -2270 -2261 0
2271 -2270 2261 0
2271 2270 -2261 0
-2272 2271 2262 0
-2272 -2271 -2262 0
2272 -2271 2262 0
2272 2271 -2262 0
-2273 2272 2263 0
-2273 -2272 -2263 0
2273 -2272 2263 0
2273 2272 -2263 0
-2274 2273 2264 0
-2274 -2273 -2264 0
2274 -2273 2264 0
2274 2273 -2264 0
-2275 2274 2265 0
-2275 -2274 -2265 0
2275 -2274 2265 0
2275 2274 -2265 0
-2276 2275 2266 0
-2276 -2275 -2266 0
2276 -2275 2266 0
2276 2275 -2266 0
-2276 0
-2277 3 0
-2277 49 0
-2277 115 0
2277 -3 -49 -115 0
-2278 7 0
-2278 55 0
-2278 121 0
2278 -7 -55 -121 0
-2279 11 0
-2279 61 0
-2279 127 0
2279 -11 -61 -127 0
-2280 15 0
-2280 67 0
-2280 133 0
2280 -15 -67 -133 0
-2281 19 0
-2281 73 0
-2281 139 0
2281 -19 -73 -139 0
-2282 23 0
-2282 79 0
-2282 145 0
2282 -23 -79 -145 0
-2283 27 0
-2283 85 0
-2283 151 0
2283 -27 -85 -151 0
-2284 31 0
-2284 91 0
-2284 157 0
2284 -31 -91 -157 0
-2285 35 0
-2285 97 0
-2285 163 0
2285 -35 -97 -163 0
-2286 39 0
-2286 103 0
-2286 169 0
2286 -39 -103 -169 0
-2287 43 0
-2287 109 0
-2287 175 0
2287 -43 -109 -175 0
-2288 2277 2278 0
-2288 -2277 -2278 0
2288 -2277 2278 0
2288 2277 -2278 0
-2289 2288 2279 0
-2289 -2288 -2279 0
2289 -2288 2279 0
2289 2288 -2279 0
-2290 2289 2280 0
-2290 -2289 -2280 0
2290 -2289 2280 0
2290 2289 -2280 0
-2291 2290 2281 0
-2291 -2290 -2281 0
2291 -2290 2281 0
2291 2290 -2281 0
-2292 2291 2282 0
-2292 -2291 -2282 0
2292 -2291 2282 0
2292 2291 -2282 0
-2293 2292 2283 0
-2293 -2292 -2283 0
2293 -2292 2283 0
2293 2292 -2283 0
-2294 2293 2284 0
-2294 -2293 -2284 0
2294 -2293 2284 0
2294 2293 -2284 0
-2295 2294 2285 0
-2295 -2294 -2285 0
2295 -2294 2285 0
2295 2294 -2285 0
-2296 2295 2286 0
-2296 -2295 -2286 0
2296 -2295 2286 0
2296 2295 -2286 0
-2297 2296 2287 0
-2297 -2296 -2287 0
2297 -2296 2287 0
2297 2296 -2287 0
-2297 0
-2298 3 0
-2298 49 0
-2298 116 0
2298 -3 -49 -116 0
-2299 7 0
-2299 55 0
-2299 122 0
2299 -7 -55 -122 0
-2300 11 0
-2300 61 0
-2300 128 0
2300 -11 -61 -128 0
-2301 15 0
-2301 67 0
-2301 134 0
2301 -15 -67 -134 0
-2302 19 0
-2302 73 0
-2302 140 0
2302 -19 -73 -140 0
-2303 23 0
-2303 79 0
-2303 146 0
2303 -23 -79 -146 0
-2304 27 0
-2304 85 0
-2304 152 0
2304 -27 -85 -152 0
-2305 31 0
-2305 91 0
-2305 158 0
2305 -31 -91 -158 0
-2306 35 0
-2306 97 0
-2306 164 0
2306 -35 -97 -164 0
-2307 39 0
-2307 103 0
-2307 170 0
2307 -39 -103 -170 0
-2308 43 0
-2308 109 0
-2308 176 0
2308 -43 -109 -176 0
-2309 2298 2299 0
-2309 -2298 -2299 0
2309 -2298 2299 0
2309 2298 -2299 0
-2310 2309 2300 0
-2310 -2309 -2300 0
2310 -2309 2300 0
2310 2309 -2300 0
-2311 2310 2301 0
-2311 -2310 -2301 0
2311 -2310 2301 0
2311 2310 -2301 0
-2312 2311 2302 0
-2312 -2311 -2302 0
2312 -2311 2302 0
2312 2311 -2302 0
-2313 2312 2303 0
-2313 -2312 -2303 0
2313 -2312 2303 0
2313 2312 -2303 0
-2314 2313 2304 0
-2314 -2313 -2304 0
2314 -2313 2304 0
2314 2313 -2304 0
-2315 2314 2305 0
-2315 -2314 -2305 0
2315 -2314 2305 0
2315 2314 -2305 0
-2316 2315 2306 0
-2316 -2315 -2306 0
2316 -2315 2306 0
2316 2315 -2306 0
-2317 2316 2307 0
-2317 -2316 -2307 0
2317 -2316 2307 0
2317 2316 -2307 0
-2318 2317 2308 0
-2318 -2317 -2308 0
2318 -2317 2308 0
2318 2317 -2308 0
-2318 0
-2319 3 0
-2319 50 0
-2319 111 0
2319 -3 -50 -111 0
-2320 7 0
-2320 56 0
-2320 117 0
2320 -7 -56 -117 0
-2321 11 0
-2321 62 0
-2321 123 0
2321 -11 -62 -123 0
-2322 15 0
-2322 68 0
-2322 129 0
2322 -15 -68 -129 0
-2323 19 0
-2323 74 0
-2323 135 0
2323 -19 -74 -135 0
-2324 23 0
-2324 80 0
-2324 141 0
2324 -23 -80 -141 0
-2325 27 0
-2325 86 0
-2325 147 0
2325 -27 -86 -147 0
-2326 31 0
-2326 92 0
-2326 153 0
2326 -31 -92 -153 0
-2327 35 0
-2327 98 0
-2327 159 0
2327 -35 -98 -159 0
-2328 39 0
-2328 104 0
-2328 165 0
2328 -39 -104 -165 0
-2329 43 0
-2329 110 0
-2329 171 0
2329 -43 -110 -171 0
-2330 2319 2320 0
-2330 -2319 -2320 0
2330 -2319 2320 0
2330 2319 -2320 0
-2331 2330 2321 0
-2331 -2330 -2321 0
2331 -2330 2321 0
2331 2330 -2321 0
-2332 2331 2322 0
-2332 -2331 -2322 0
2332 -2331 2322 0
2332 2331 -2322 0
-2333 2332 2323 0
-2333 -2332 -2323 0
2333 -2332 2323 0
2333 2332 -2323 0
-2334 2333 2324 0
-2334 -2333 -2324 0
2334 -2333 2324 0
2334 2333 -2324 0
-2335 2334 2325 0
-2335 -2334 -2325 0
2335 -2334 2325 0
2335 2334 -2325 0
-2336 2335 2326 0
-2336 -2335 -2326 0
2336 -2335 2326 0
2336 2335 -2326 0
-2337 2336 2327 0
-2337 -2336 -2327 0
2337 -2336 2327 0
2337 2336 -2327 0
-2338 2337 2328 0
-2338 -2337 -2328 0
2338 -2337 2328 0
2338 2337 -2328 0
-2339 2338 2329 0
-2339 -2338 -2329 0
2339 -2338 2329 0
2339 2338 -2329 0
-2339 0
-2340 3 0
-2340 50 0
-2340 112 0
2340 -3 -50 -112 0
-2341 7 0
-2341 56 0
-2341 118 0
2341 -7 -56 -118 0
-2342 11 0
-2342 62 0
-2342 124 0
2342 -11 -62 -124 0
-2343 15 0
-2343 68 0
-2343 130 0
2343 -15 -68 -130 0
-2344 19 0
-2344 74 0
-2344 136 0
2344 -19 -74 -136 0
-2345 23 0
-2345 80 0
-2345 142 0
2345 -23 -80 -142 0
-2346 27 0
-2346 86 0
-2346 148 0
2346 -27 -86 -148 0
-2347 31 0
-2347 92 0
-2347 154 0
2347 -31 -92 -154 0
-2348 35 0
-2348 98 0
-2348 160 0
2348 -35 -98 -160 0
-2349 39 0
-2349 104 0
-2349 166 0
2349 -39 -104 -166 0
-2350 43 0
-2350 110 0
-2350 172 0
2350 -43 -110 -172 0
-2351 2340 2341 0
-2351 -2340 -2341 0
2351 -2340 2341 0
2351 2340 -2341 0
-2352 2351 2342 0
-2352 -2351 -2342 0
2352 -2351 2342 0
2352 2351 -2342 0
-2353 2352 2343 0
-2353 -2352 -2343 0
2353 -2352 2343 0
2353 2352 -2343 0
-2354 2353 2344 0
-2354 -2353 -2344 0
2354 -2353 2344 0
2354 2353 -2344 0
-2355 2354 2345 0
-2355 -2354 -2345 0
2355 -2354 2345 0
2355 2354 -2345 0
-2356 2355 2346 0
-2356 -2355 -2346 0
2356 -2355 2346 0
2356 2355 -2346 0
-2357 2356 2347 0
-2357 -2356 -2347 0
2357 -2356 2347 0
2357 2356 -2347 0
-2358 2357 2348 0
-2358 -2357 -2348 0
2358 -2357 2348 0
2358 2357 -2348 0
-2359 2358 2349 0
-2359 -2358 -2349 0
2359 -2358 2349 0
2359 2358 -2349 0
-2360 2359 2350 0
-2360 -2359 -2350 0
2360 -2359 2350 0
2360 2359 -2350 0
-2360 0
-2361 3 0
-2361 50 0
-2361 113 0
2361 -3 -50 -113 0
-2362 7 0
-2362 56 0
-2362 119 0
2362 -7 -56 -119 0
-2363 11 0
-2363 62 0
-2363 125 0
2363 -11 -62 -125 0
-2364 15 0
-2364 68 0
-2364 131 0
2364 -15 -68 -131 0
-2365 19 0
-2365 74 0
-2365 137 0
2365 -19 -74 -137 0
-2366 23 0
-2366 80 0
-2366 143 0
2366 -23 -80 -143 0
-2367 27 0
-2367 86 0
-2367 149 0
2367 -27 -86 -149 0
-2368 31 0
-2368 92 0
-2368 155 0
2368 -31 -92 -155 0
-2369 35 0
-2369 98 0
-2369 161 0
2369 -35 -98 -161 0
-2370 39 0
-2370 104 0
-2370 167 0
2370 -39 -104 -167 0
-2371 43 0
-2371 110 0
-2371 173 0
2371 -43 -110 -173 0
-2372 2361 2362 0
-2372 -2361 -2362 0
2372 -2361 2362 0
2372 2361 -2362 0
-2373 2372 2363 0
-2373 -2372 -2363 0
2373 -2372 2363 0
2373 2372 -2363 0
-2374 2373 2364 0
-2374 -2373 -2364 0
2374 -2373 2364 0
2374 2373 -2364 0
-2375 2374 2365 0
-2375 -2374 -2365 0
2375 -2374 2365 0
2375 2374 -2365 0
-2376 2375 2366 0
-2376 -2375 -2366 0
2376 -2375 2366 0
2376 2375 -2366 0
-2377 2376 2367 0
-2377 -2376 -2367 0
2377 -2376 2367 0
2377 2376 -2367 0
-2378 2377 2368 0
-2378 -2377 -2368 0
2378 -2377 2368 0
2378 2377 -2368 0
-2379 2378 2369 0
-2379 -2378 -2369 0
2379 -2378 2369 0
2379 2378 -2369 0
-2380 2379 2370 0
-2380 -2379 -2370 0
2380 -2379 2370 0
2380 2379 -2370 0
-2381 2380 2371 0
-2381 -2380 -2371 0
2381 -2380 2371 0
2381 2380 -2371 0
-2381 0
-2382 3 0
-2382 50 0
-2382 114 0
2382 -3 -50 -114 0
-2383 7 0
-2383 56 0
-2383 120 0
2383 -7 -56 -120 0
-2384 11 0
-2384 62 0
-2384 126 0
2384 -11 -62 -126 0
-2385 15 0
-2385 68 0
-2385 132 0
2385 -15 -68 -132 0
-2386 19 0
-2386 74 0
-2386 138 0
2386 -19 -74 -138 0
-2387 23 0
-2387 80 0
-2387 144 0
2387 -23 -80 -144 0
-2388 27 0
-2388 86 0
-2388 150 0
2388 -27 -86 -150 0
-2389 31 0
-2389 92 0
-2389 156 0
2389 -31 -92 -156 0
-2390 35 0
-2390 98 0
-2390 162 0
2390 -35 -98 -162 0
-2391 39 0
-2391 104 0
-2391 168 0
2391 -39 -104 -168 0
-2392 43 0
-2392 110 0
-2392 174 0
2392 -43 -110 -174 0
-2393 2382 2383 0
-2393 -2382 -2383 0
2393 -2382 2383 0
2393 2382 -2383 0
-2394 2393 2384 0
-2394 -2393 -2384 0
2394 -2393 2384 0
2394 2393 -2384 0
-2395 2394 2385 0
-2395 -2394 -2385 0
2395 -2394 2385 0
2395 2394 -2385 0
-2396 2395 2386 0
-2396 -2395 -2386 0
2396 -2395 2386 0
2396 2395 -2386 0
-2397 2396 2387 0
-2397 -2396 -2387 0
2397 -2396 2387 0
2397 2396 -2387 0
-2398 2397 2388 0
-2398 -2397 -2388 0
2398 -2397 2388 0
2398 2397 -2388 0
-2399 2398 2389 0
-2399 -2398 -2389 0
2399 -2398 2389 0
2399 2398 -2389 0
-2400 2399 2390 0
-2400 -2399 -2390 0
2400 -2399 2390 0
2400 2399 -2390 0
-2401 2400 2391 0
-2401 -2400 -2391 0
2401 -2400 2391 0
2401 2400 -2391 0
-2402 2401 2392 0
-2402 -2401 -2392 0
2402 -2401 2392 0
2402 2401 -2392 0
-2402 0
-2403 3 0
-2403 50 0
-2403 115 0
2403 -3 -50 -115 0
-2404 7 0
-2404 56 0
-2404 121 0
2404 -7 -56 -121 0
-2405 11 0
-2405 62 0
-2405 127 0
2405 -11 -62 -127 0
-2406 15 0
-2406 68 0
-2406 133 0
2406 -15 -68 -133 0
-2407 19 0
-2407 74 0
-2407 139 0
2407 -19 -74 -139 0
-2408 23 0
-2408 80 0
-2408 145 0
2408 -23 -80 -145 0
-2409 27 0
-2409 86 0
-2409 151 0
2409 -27 -86 -151 0
-2410 31 0
-2410 92 0
-2410 157 0
2410 -31 -92 -157 0
-2411 35 0
-2411 98 0
-2411 163 0
2411 -35 -98 -163 0
-2412 39 0
-2412 104 0
-2412 169 0
2412 -39 -104 -169 0
-2413 43 0
-2413 110 0
-2413 175 0
2413 -43 -110 -175 0
-2414 2403 2404 0
-2414 -2403 -2404 0
2414 -2403 2404 0
2414 2403 -2404 0
-2415 2414 2405 0
-2415 -2414 -2405 0
2415 -2414 2405 0
2415 2414 -2405 0
-2416 2415 2406 0
-2416 -2415 -2406 0
2416 -2415 2406 0
2416 2415 -2406 0
-2417 2416 2407 0
-2417 -2416 -2407 0
2417 -2416 2407 0
2417 2416 -2407 0
-2418 2417 2408 0
-2418 -2417 -2408 0
2418 -2417 2408 0
2418 2417 -2408 0
-2419 2418 2409 0
-2419 -2418 -2409 0
2419 -2418 2409 0
2419 2418 -2409 0
-2420 2419 2410 0
-2420 -2419 -2410 0
2420 -2419 2410 0
2420 2419 -2410 0
-2421 2420 2411 0
-2421 -2420 -2411 0
2421 -2420 2411 0
2421 2420 -2411 0
-2422 2421 2412 0
-2422 -2421 -2412 0
2422 -2421 2412 0
2422 2421 -2412 0
-2423 2422 2413 0
-2423 -2422 -2413 0
2423 -2422 2413 0
2423 2422 -2413 0
-2423 0
-2424 3 0
-2424 50 0
-2424 116 0
2424 -3 -50 -116 0
-2425 7 0
-2425 56 0
-2425 122 0
2425 -7 -56 -122 0
-2426 11 0
-2426 62 0
-2426 128 0
2426 -11 -62 -128 0
-2427 15 0
-2427 68 0
-2427 134 0
2427 -15 -68 -134 0
-2428 19 0
-2428 74 0
-2428 140 0
2428 -19 -74 -140 0
-2429 23 0
-2429 80 0
-2429 146 0
2429 -23 -80 -146 0
-2430 27 0
-2430 86 0
-2430 152 0
2430 -27 -86 -152 0
-2431 31 0
-2431 92 0
-2431 158 0
2431 -31 -92 -158 0
-2432 35 0
-2432 98 0
-2432 164 0
2432 -35 -98 -164 0
-2433 39 0
-2433 104 0
-2433 170 0
2433 -39 -104 -170 0
-2434 43 0
-2434 110 0
-2434 176 0
2434 -43 -110 -176 0
-2435 2424 2425 0
-2435 -2424 -2425 0
2435 -2424 2425 0
2435 2424 -2425 0
-2436 2435 2426 0
-2436 -2435 -2426 0
2436 -2435 2426 0
2436 2435 -2426 0
-2437 2436 2427 0
-2437 -2436 -2427 0
2437 -2436 2427 0
2437 2436 -2427 0
-2438 2437 2428 0
-2438 -2437 -2428 0
2438 -2437 2428 0
2438 2437 -2428 0
-2439 2438 2429 0
-2439 -2438 -2429 0
2439 -2438 2429 0
2439 2438 -2429 0
-2440 2439 2430 0
-2440 -2439 -2430 0
2440 -2439 2430 0
2440 2439 -2430 0
-2441 2440 2431 0
-2441 -2440 -2431 0
2441 -2440 2431 0
2441 2440 -2431 0
-2442 2441 2432 0
-2442 -2441 -2432 0
2442 -2441 2432 0
2442 2441 -2432 0
-2443 2442 2433 0
-2443 -2442 -2433 0
2443 -2442 2433 0
2443 2442 -2433 0
-2444 2443 2434 0
-2444 -2443 -2434 0
2444 -2443 2434 0
2444 2443 -2434 0
-2444 0
-2445 4 0
-2445 45 0
-2445 111 0
2445 -4 -45 -111 0
-2446 8 0
-2446 51 0
-2446 117 0
2446 -8 -51 -117 0
-2447 12 0
-2447 57 0
-2447 123 0
2447 -12 -57 -123 0
-2448 16 0
-2448 63 0
-2448 129 0
2448 -16 -63 -129 0
-2449 20 0
-2449 69 0
-2449 135 0
2449 -20 -69 -135 0
-2450 24 0
-2450 75 0
-2450 141 0
2450 -24 -75 -141 0
-2451 28 0
-2451 81 0
-2451 147 0
2451 -28 -81 -147 0
-2452 32 0
-2452 87 0
-2452 153 0
2452 -32 -87 -153 0
-2453 36 0
-2453 93 0
-2453 159 0
2453 -36 -93 -159 0
-2454 40 0
-2454 99 0
-2454 165 0
2454 -40 -99 -165 0
-2455 44 0
-2455 105 0
-2455 171 0
2455 -44 -105 -171 0
-2456 2445 2446 0
-2456 -2445 -2446 0
2456 -2445 2446 0
2456 2445 -2446 0
-2457 2456 2447 0
-2457 -2456 -2447 0
2457 -2456 2447 0
2457 2456 -2447 0
-2458 2457 2448 0
-2458 -2457 -2448 0
2458 -2457 2448 0
2458 2457 -2448 0
-2459 2458 2449 0
-2459 -2458 -2449 0
2459 -2458 2449 0
2459 2458 -2449 0
-2460 2459 2450 0
-2460 -2459 -2450 0
2460 -2459 2450 0
2460 2459 -2450 0
-2461 2460 2451 0
-2461 -2460 -2451 0
2461 -2460 2451 0
2461 2460 -2451 0
-2462 2461 2452 0
-2462 -2461 -2452 0
2462 -2461 2452 0
2462 2461 -2452 0
-2463 2462 2453 0
-2463 -2462 -2453 0
2463 -2462 2453 0
2463 2462 -2453 0
-2464 2463 2454 0
-2464 -2463 -2454 0
2464 -2463 2454 0
2464 2463 -2454 0
-2465 2464 2455 0
-2465 -2464 -2455 0
2465 -2464 2455 0
2465 2464 -2455 0
-2465 0
-2466 4 0
-2466 45 0
-2466 112 0
2466 -4 -45 -112 0
-2467 8 0
-2467 51 0
-2467 118 0
2467 -8 -51 -118 0
-2468 12 0
-2468 57 0
-2468 124 0
2468 -12 -57 -124 0
-2469 16 0
-2469 63 0
-2469 130 0
2469 -16 -63 -130 0
-2470 20 0
-2470 69 0
-2470 136 0
2470 -20 -69 -136 0
-2471 24 0
-2471 75 0
-2471 142 0
2471 -24 -75 -142 0
-2472 28 0
-2472 81 0
-2472 148 0
2472 -28 -81 -148 0
-2473 32 0
-2473 87 0
-2473 154 0
2473 -32 -87 -154 0
-2474 36 0
-2474 93 0
-2474 160 0
2474 -36 -93 -160 0
-2475 40 0
-2475 99 0
-2475 166 0
2475 -40 -99 -166 0
-2476 44 0
-2476 105 0
-2476 172 0
2476 -44 -105 -172 0
-2477 2466 2467 0
-2477 -2466 -2467 0
2477 -2466 2467 0
2477 2466 -2467 0
-2478 2477 2468 0
-2478 -2477 -2468 0
2478 -2477 2468 0
2478 2477 -2468 0
-2479 2478 2469 0
-2479 -2478 -2469 0
2479 -2478 2469 0
2479 2478 -2469 0
-2480 2479 2470 0
-2480 -2479 -2470 0
2480 -2479 2470 0
2480 2479 -2470 0
-2481 2480 2471 0
-2481 -2480 -2471 0
2481 -2480 2471 0
2481 2480 -2471 0
-2482 2481 2472 0
-2482 -2481 -2472 0
2482 -2481 2472 0
2482 2481 -2472 0
-2483 2482 2473 0
-2483 -2482 -2473 0
2483 -2482 2473 0
2483 2482 -2473 0
-2484 2483 2474 0
-2484 -2483 -2474 0
2484 -2483 2474 0
2484 2483 -2474 0
-2485 2484 2475 0
-2485 -2484 -2475 0
2485 -2484 2475 0
2485 2484 -2475 0
-2486 2485 2476 0
-2486 -2485 -2476 0
2486 -2485 2476 0
2486 2485 -2476 0
-2486 0
-2487 4 0
-2487 45 0
-2487 113 0
2487 -4 -45 -113 0
-2488 8 0
-2488 51 0
-2488 119 0
2488 -8 -51 -119 0
-2489 12 0
-2489 57 0
-2489 125 0
2489 -12 -57 -125 0
-2490 16 0
-2490 63 0
-2490 131 0
2490 -16 -63 -131 0
-2491 20 0
-2491 69 0
-2491 137 0
2491 -20 -69 -137 0
-2492 24 0
-2492 75 0
-2492 143 0
2492 -24 -75 -143 0
-2493 28 0
-2493 81 0
-2493 149 0
2493 -28 -81 -149 0
-2494 32 0
-2494 87 0
-2494 155 0
2494 -32 -87 -155 0
-2495 36 0
-2495 93 0
-2495 161 0
2495 -36 -93 -161 0
-2496 40 0
-2496 99 0
-2496 167 0
2496 -40 -99 -167 0
-2497 44 0
-2497 105 0
-2497 173 0
2497 -44 -105 -173 0
-2498 2487 2488 0
-2498 -2487 -2488 0
2498 -2487 2488 0
2498 2487 -2488 0
-2499 2498 2489 0
-2499 -2498 -2489 0
2499 -2498 2489 0
2499 2498 -2489 0
-2500 2499 2490 0
-2500 -2499 -2490 0
2500 -2499 2490 0
2500 2499 -2490 0
-2501 2500 2491 0
-2501 -2500 -2491 0
2501 -2500 2491 0
2501 2500 -2491 0
-2502 2501 2492 0
-2502 -2501 -2492 0
2502 -2501 2492 0
2502 2501 -2492 0
-2503 2502 2493 0
-2503 -2502 -2493 0
2503 -2502 2493 0
2503 2502 -2493 0
-2504 2503 2494 0
-2504 -2503 -2494 0
2504 -2503 2494 0
2504 2503 -2494 0
-2505 2504 2495 0
-2505 -2504 -2495 0
2505 -2504 2495 0
2505 2504 -2495 0
-2506 2505 2496 0
-2506 -2505 -2496 0
2506 -2505 2496 0
2506 2505 -2496 0
-2507 2506 2497 0
-2507 -2506 -2497 0
2507 -2506 2497 0
2507 2506 -2497 0
-2507 0
-2508 4 0
-2508 45 0
-2508 114 0
2508 -4 -45 -114 0
-2509 8 0
-2509 51 0
-2509 120 0
2509 -8 -51 -120 0
-2510 12 0
-2510 57 0
-2510 126 0
2510 -12 -57 -126 0
-2511 16 0
-2511 63 0
-2511 132 0
2511 -16 -63 -132 0
-2512 20 0
-2512 69 0
-2512 138 0
2512 -20 -69 -138 0
-2513 24 0
-2513 75 0
-2513 144 0
2513 -24 -75 -144 0
-2514 28 0
-2514 81 0
-2514 150 0
2514 -28 -81 -150 0
-2515 32 0
-2515 87 0
-2515 156 0
2515 -32 -87 -156 0
-2516 36 0
-2516 93 0
-2516 162 0
2516 -36 -93 -162 0
-2517 40 0
-2517 99 0
-2517 168 0
2517 -40 -99 -168 0
-2518 44 0
-2518 105 0
-2518 174 0
2518 -44 -105 -174 0
-2519 2508 2509 0
-2519 -2508 -2509 0
2519 -2508 2509 0
2519 2508 -2509 0
-2520 2519 2510 0
-2520 -2519 -2510 0
2520 -2519 2510 0
2520 2519 -2510 0
-2521 2520 2511 0
-2521 -2520 -2511 0
2521 -2520 2511 0
2521 2520 -2511 0
-2522 2521 2512 0
-2522 -2521 -2512 0
2522 -2521 2512 0
2522 2521 -2512 0
-2523 2522 2513 0
-2523 -2522 -2513 0
2523 -2522 2513 0
2523 2522 -2513 0
-2524 2523 2514 0
-2524 -2523 -2514 0
2524 -2523 2514 0
2524 2523 -2514 0
-2525 2524 2515 0
-2525 -2524 -2515 0
2525 -2524 2515 0
2525 2524 -2515 0
-2526 2525 2516 0
-2526 -2525 -2516 0
2526 -2525 2516 0
2526 2525 -2516 0
-2527 2526 2517 0
-2527 -2526 -2517 0
2527 -2526 2517 0
2527 2526 -2517 0
-2528 2527 2518 0
-2528 -2527 -2518 0
2528 -2527 2518 0
2528 2527 -2518 0
-2528 0
-2529 4 0
-2529 45 0
-2529 115 0
2529 -4 -45 -115 0
-2530 8 0
-2530 51 0
-2530 121 0
2530 -8 -51 -121 0
-2531 12 0
-2531 57 0
-2531 127 0
2531 -12 -57 -127 0
-2532 16 0
-2532 63 0
-2532 133 0
2532 -16 -63 -133 0
-2533 20 0
-2533 69 0
-2533 139 0
2533 -20 -69 -139 0
-2534 24 0
-2534 75 0
-2534 145 0
2534 -24 -75 -145 0
-2535 28 0
-2535 81 0
-2535 151 0
2535 -28 -81 -151 0
-2536 32 0
-2536 87 0
-2536 157 0
2536 -32 -87 -157 0
-2537 36 0
-2537 93 0
-2537 163 0
2537 -36 -93 -163 0
-2538 40 0
-2538 99 0
-2538 169 0
2538 -40 -99 -169 0
-2539 44 0
-2539 105 0
-2539 175 0
2539 -44 -105 -175 0
-2540 2529 2530 0
-2540 -2529 -2530 0
2540 -2529 2530 0
2540 2529 -2530 0
-2541 2540 2531 0
-2541 -2540 -2531 0
2541 -2540 2531 0
2541 2540 -2531 0
-2542 2541 2532 0
-2542 -2541 -2532 0
2542 -2541 2532 0
2542 2541 -2532 0
-2543 2542 2533 0
-2543 -2542 -2533 0
2543 -2542 2533 0
2543 2542 -2533 0
-2544 2543 2534 0
-2544 -2543 -2534 0
2544 -2543 2534 0
2544 2543 -2534 0
-2545 2544 2535 0
-2545 -2544 -2535 0
2545 -2544 2535 0
2545 2544 -2535 0
-2546 2545 2536 0
-2546 -2545 -2536 0
2546 -2545 2536 0
2546 2545 -2536 0
-2547 2546 2537 0
-2547 -2546 -2537 0
2547 -2546 2537 0
2547 2546 -2537 0
-2548 2547 2538 0
-2548 -2547 -2538 0
2548 -2547 2538 0
2548 2547 -2538 0
-2549 2548 2539 0
-2549 -2548 -2539 0
2549 -2548 2539 0
2549 2548 -2539 0
-2549 0
-2550 4 0
-2550 45 0
-2550 116 0
2550 -4 -45 -116 0
-2551 8 0
-2551 51 0
-2551 122 0
2551 -8 -51 -122 0
-2552 12 0
-2552 57 0
-2552 128 0
2552 -12 -57 -128 0
-2553 16 0
-2553 63 0
-2553 134 0
2553 -16 -63 -134 0
-2554 20 0
-2554 69 0
-2554 140 0
2554 -20 -69 -140 0
-2555 24 0
-2555 75 0
-2555 146 0
2555 -24 -75 -146 0
-2556 28 0
-2556 81 0
-2556 152 0
2556 -28 -81 -152 0
-2557 32 0
-2557 87 0
-2557 158 0
2557 -32 -87 -158 0
-2558 36 0
-2558 93 0
-2558 164 0
2558 -36 -93 -164 0
-2559 40 0
-2559 99 0
-2559 170 0
2559 -40 -99 -170 0
-2560 44 0
-2560 105 0
-2560 176 0
2560 -44 -105 -176 0
-2561 2550 2551 0
-2561 -2550 -2551 0
2561 -2550 2551 0
2561 2550 -2551 0
-2562 2561 2552 0
-2562 -2561 -2552 0
2562 -2561 2552 0
2562 2561 -2552 0
-2563 2562 2553 0
-2563 -2562 -2553 0
2563 -2562 2553 0
2563 2562 -2553 0
-2564 2563 2554 0
-2564 -2563 -2554 0
2564 -2563 2554 0
2564 2563 -2554 0
-2565 2564 2555 0
-2565 -2564 -2555 0
2565 -2564 2555 0
2565 2564 -2555 0
-2566 2565 2556 0
-2566 -2565 -2556 0
2566 -2565 2556 0
2566 2565 -2556 0
-2567 2566 2557 0
-2567 -2566 -2557 0
2567 -2566 2557 0
2567 2566 -2557 0
-2568 2567 2558 0
-2568 -2567 -2558 0
2568 -2567 2558 0
2568 2567 -2558 0
-2569 2568 2559 0
-2569 -2568 -2559 0
2569 -2568 2559 0
2569 2568 -2559 0
-2570 2569 2560 0
-2570 -2569 -2560 0
2570 -2569 2560 0
2570 2569 -2560 0
-2570 0
-2571 4 0
-2571 46 0
-2571 111 0
2571 -4 -46 -111 0
-2572 8 0
-2572 52 0
-2572 117 0
2572 -8 -52 -117 0
-2573 12 0
-2573 58 0
-2573 123 0
2573 -12 -58 -123 0
-2574 16 0
-2574 64 0
-2574 129 0
2574 -16 -64 -129 0
-2575 20 0
-2575 70 0
-2575 135 0
2575 -20 -70 -135 0
-2576 24 0
-2576 76 0
-2576 141 0
2576 -24 -76 -141 0
-2577 28 0
-2577 82 0
-2577 147 0
2577 -28 -82 -147 0
-2578 32 0
-2578 88 0
-2578 153 0
2578 -32 -88 -153 0
-2579 36 0
-2579 94 0
-2579 159 0
2579 -36 -94 -159 0
-2580 40 0
-2580 100 0
-2580 165 0
2580 -40 -100 -165 0
-2581 44 0
-2581 106 0
-2581 171 0
2581 -44 -106 -171 0
-2582 2571 2572 0
-2582 -2571 -2572 0
2582 -2571 2572 0
2582 2571 -2572 0
-2583 2582 2573 0
-2583 -2582 -2573 0
2583 -2582 2573 0
2583 2582 -2573 0
-2584 2583 2574 0
-2584 -2583 -2574 0
2584 -2583 2574 0
2584 2583 -2574 0
-2585 2584 2575 0
-2585 -2584 -2575 0
2585 -2584 2575 0
2585 2584 -2575 0
-2586 2585 2576 0
-2586 -2585 -2576 0
2586 -2585 2576 0
2586 2585 -2576 0
-2587 2586 2577 0
-2587 -2586 -2577 0
2587 -2586 2577 0
2587 2586 -2577 0
-2588 2587 2578 0
-2588 -2587 -2578 0
2588 -2587 2578 0
2588 2587 -2578 0
-2589 2588 2579 0
-2589 -2588 -2579 0
2589 -2588 2579 0
2589 2588 -2579 0
-2590 2589 2580 0
-2590 -2589 -2580 0
2590 -2589 2580 0
2590 2589 -2580 0
-2591 2590 2581 0
-2591 -2590 -2581 0
2591 -2590 2581 0
2591 2590 -2581 0
-2591 0
-2592 4 0
-2592 46 0
-2592 112 0
2592 -4 -46 -112 0
-2593 8 0
-2593 52 0
-2593 118 0
2593 -8 -52 -118 0
-2594 12 0
-2594 58 0
-2594 124 0
2594 -12 -58 -124 0
-2595 16 0
-2595 64 0
-2595 130 0
2595 -16 -64 -130 0
-2596 20 0
-2596 70 0
-2596 136 0
2596 -20 -70 -136 0
-2597 24 0
-2597 76 0
-2597 142 0
2597 -24 -76 -142 0
-2598 28 0
-2598 82 0
-2598 148 0
2598 -28 -82 -148 0
-2599 32 0
-2599 88 0
-2599 154 0
2599 -32 -88 -154 0
-2600 36 0
-2600 94 0
-2600 160 0
2600 -36 -94 -160 0
-2601 40 0
-2601 100 0
-2601 166 0
2601 -40 -100 -166 0
-2602 44 0
-2602 106 0
-2602 172 0
2602 -44 -106 -172 0
-2603 2592 2593 0
-2603 -2592 -2593 0
2603 -2592 2593 0
2603 2592 -2593 0
-2604 2603 2594 0
-2604 -2603 -2594 0
2604 -2603 2594 0
2604 2603 -2594 0
-2605 2604 2595 0
-2605 -2604 -2595 0
2605 -2604 2595 0
2605 2604 -2595 0
-2606 2605 2596 0
-2606 -2605 -2596 0
2606 -2605 2596 0
2606 2605 -2596 0
-2607 2606 2597 0
-2607 -2606 -2597 0
2607 -2606 2597 0
2607 2606 -2597 0
-2608 2607 2598 0
-2608 -2607 -2598 0
2608 -2607 2598 0
2608 2607 -2598 0
-2609 2608 2599 0
-2609 -2608 -2599 0
2609 -2608 2599 0
2609 2608 -2599 0
-2610 2609 2600 0
-2610 -2609 -2600 0
2610 -2609 2600 0
2610 2609 -2600 0
-2611 2610 2601 0
-2611 -2610 -2601 0
2611 -2610 2601 0
2611 2610 -2601 0
-2612 2611 2602 0
-2612 -2611 -2602 0
2612 -2611 2602 0
2612 2611 -2602 0
-2612 0
-2613 4 0
-2613 46 0
-2613 113 0
2613 -4 -46 -113 0
-2614 8 0
-2614 52 0
-2614 119 0
2614 -8 -52 -119 0
-2615 12 0
-2615 58 0
-2615 125 0
2615 -12 -58 -125 0
-2616 16 0
-2616 64 0
-2616 131 0
2616 -16 -64 -131 0
-2617 20 0
-2617 70 0
-2617 137 0
2617 -20 -70 -137 0
-2618 24 0
-2618 76 0
-2618 143 0
2618 -24 -76 -143 0
-2619 28 0
-2619 82 0
-2619 149 0
2619 -28 -82 -149 0
-2620 32 0
-2620 88 0
-2620 155 0
2620 -32 -88 -155 0
-2621 36 0
-2621 94 0
-2621 161 0
2621 -36 -94 -161 0
-2622 40 0
-2622 100 0
-2622 167 0
2622 -40 -100 -167 0
-2623 44 0
-2623 106 0
-2623 173 0
2623 -44 -106 -173 0
-2624 2613 2614 0
-2624 -2613 -2614 0
2624 -2613 2614 0
2624 2613 -2614 0
-2625 2624 2615 0
-2625 -2624 -2615 0
2625 -2624 2615 0
2625 2624 -2615 0
-2626 2625 2616 0
-2626 -2625 -2616 0
2626 -2625 2616 0
2626 2625 -2616 0
-2627 2626 2617 0
-2627 -2626 -2617 0
2627 -2626 2617 0
2627 2626 -2617 0
-2628 2627 2618 0
-2628 -2627 -2618 0
2628 -2627 2618 0
2628 2627 -2618 0
-2629 2628 2619 0
-2629 -2628 -2619 0
2629 -2628 2619 0
2629 2628 -2619 0
-2630 2629 2620 0
-2630 -2629 -2620 0
2630 -2629 2620 0
2630 2629 -2620 0
-2631 2630 2621 0
-2631 -2630 -2621 0
2631 -2630 2621 0
2631 2630 -2621 0
-2632 2631 2622 0
-2632 -2631 -2622 0
2632 -2631 2622 0
2632 2631 -2622 0
-2633 2632 2623 0
-2633 -2632 -2623 0
2633 -2632 2623 0
2633 2632 -2623 0
-2633 0
-2634 4 0
-2634 46 0
-2634 114 0
2634 -4 -46 -114 0
-2635 8 0
-2635 52 0
-2635 120 0
2635 -8 -52 -120 0
-2636 12 0
-2636 58 0
-2636 126 0
2636 -12 -58 -126 0
-2637 16 0
-2637 64 0
-2637 132 0
2637 -16 -64 -132 0
-2638 20 0
-2638 70 0
-2638 138 0
2638 -20 -70 -138 0
-2639 24 0
-2639 76 0
-2639 144 0
2639 -24 -76 -144 0
-2640 28 0
-2640 82 0
-2640 150 0
2640 -28 -82 -150 0
-2641 32 0
-2641 88 0
-2641 156 0
2641 -32 -88 -156 0
-2642 36 0
-2642 94 0
-2642 162 0
2642 -36 -94 -162 0
-2643 40 0
-2643 100 0
-2643 168 0
2643 -40 -100 -168 0
-2644 44 0
-2644 106 0
-2644 174 0
2644 -44 -106 -174 0
-2645 2634 2635 0
-2645 -2634 -2635 0
2645 -2634 2635 0
2645 2634 -2635 0
-2646 2645 2636 0
-2646 -2645 -2636 0
2646 -2645 2636 0
2646 2645 -2636 0
-2647 2646 2637 0
-2647 -2646 -2637 0
2647 -2646 2637 0
2647 2646 -2637 0
-2648 2647 2638 0
-2648 -2647 -2638 0
2648 -2647 2638 0
2648 2647 -2638 0
-2649 2648 2639 0
-2649 -2648 -2639 0
2649 -2648 2639 0
2649 2648 -2639 0
-2650 2649 2640 0
-2650 -2649 -2640 0
2650 -2649 2640 0
2650 2649 -2640 0
-2651 2650 2641 0
-2651 -2650 -2641 0
2651 -2650 2641 0
2651 2650 -2641 0
-2652 2651 2642 0
-2652 -2651 -2642 0
2652 -2651 2642 0
2652 2651 -2642 0
-2653 2652 2643 0
-2653 -2652 -2643 0
2653 -2652 2643 0
2653 2652 -2643 0
-2654 2653 2644 0
-2654 -2653 -2644 0
2654 -2653 2644 0
2654 2653 -2644 0
-2654 0
-2655 4 0
-2655 46 0
-2655 115 0
2655 -4 -46 -115 0
-2656 8 0
-2656 52 0
-2656 121 0
2656 -8 -52 -121 0
-2657 12 0
-2657 58 0
-2657 127 0
2657 -12 -58 -127 0
-2658 16 0
-2658 64 0
-2658 133 0
2658 -16 -64 -133 0
-2659 20 0
-2659 70 0
-2659 139 0
2659 -20 -70 -139 0
-2660 24 0
-2660 76 0
-2660 145 0
2660 -24 -76 -145 0
-2661 28 0
-2661 82 0
-2661 151 0
2661 -28 -82 -151 0
-2662 32 0
-2662 88 0
-2662 157 0
2662 -32 -88 -157 0
-2663 36 0
-2663 94 0
-2663 163 0
2663 -36 -94 -163 0
-2664 40 0
-2664 100 0
-2664 169 0
2664 -40 -100 -169 0
-2665 44 0
-2665 106 0
-2665 175 0
2665 -44 -106 -175 0
-2666 2655 2656 0
-2666 -2655 -2656 0
2666 -2655 2656 0
2666 2655 -2656 0
-2667 2666 2657 0
-2667 -2666 -2657 0
2667 -2666 2657 0
2667 2666 -2657 0
-2668 2667 2658 0
-2668 -2667 -2658 0
2668 -2667 2658 0
2668 2667 -2658 0
-2669 2668 2659 0
-2669 -2668 -2659 0
2669 -2668 2659 0
2669 2668 -2659 0
-2670 2669 2660 0
-2670 -2669 -2660 0
2670 -2669 2660 0
2670 2669 -2660 0
-2671 2670 2661 0
-2671 -2670 -2661 0
2671 -2670 2661 0
2671 2670 -2661 0
-2672 2671 2662 0
-2672 -2671 -2662 0
2672 -2671 2662 0
2672 2671 -2662 0
-2673 2672 2663 0
-2673 -2672 -2663 0
2673 -2672 2663 0
2673 2672 -2663 0
-2674 2673 2664 0
-2674 -2673 -2664 0
2674 -2673 2664 0
2674 2673 -2664 0
-2675 2674 2665 0
-2675 -2674 -2665 0
2675 -2674 2665 0
2675 2674 -2665 0
-2675 0
-2676 4 0
-2676 46 0
-2676 116 0
2676 -4 -46 -116 0
-2677 8 0
-2677 52 0
-2677 122 0
2677 -8 -52 -122 0
-2678 12 0
-2678 58 0
-2678 128 0
2678 -12 -58 -128 0
-2679 16 0
-2679 64 0
-2679 134 0
2679 -16 -64 -134 0
-2680 20 0
-2680 70 0
-2680 140 0
2680 -20 -70 -140 0
-2681 24 0
-2681 76 0
-2681 146 0
2681 -24 -76 -146 0
-2682 28 0
-2682 82 0
-2682 152 0
2682 -28 -82 -152 0
-2683 32 0
-2683 88 0
-2683 158 0
2683 -32 -88 -158 0
-2684 36 0
-2684 94 0
-2684 164 0
2684 -36 -94 -164 0
-2685 40 0
-2685 100 0
-2685 170 0
2685 -40 -100 -170 0
-2686 44 0
-2686 106 0
-2686 176 0
2686 -44 -106 -176 0
-2687 2676 2677 0
-2687 -2676 -2677 0
2687 -2676 2677 0
2687 2676 -2677 0
-2688 2687 2678 0
-2688 -2687 -2678 0
2688 -2687 2678 0
2688 2687 -2678 0
-2689 2688 2679 0
-2689 -2688 -2679 0
2689 -2688 2679 0
2689 2688 -2679 0
-2690 2689 2680 0
-2690 -2689 -2680 0
2690 -2689 2680 0
2690 2689 -2680 0
-2691 2690 2681 0
-2691 -2690 -2681 0
2691 -2690 2681 0
2691 2690 -2681 0
-2692 2691 2682 0
-2692 -2691 -2682 0
2692 -2691 2682 0
2692 2691 -2682 0
-2693 2692 2683 0
-2693 -2692 -2683 0
2693 -2692 2683 0
2693 2692 -2683 0
-2694 2693 2684 0
-2694 -2693 -2684 0
2694 -2693 2684 0
2694 2693 -2684 0
-2695 2694 2685 0
-2695 -2694 -2685 0
2695 -2694 2685 0
2695 2694 -2685 0
-2696 2695 2686 0
-2696 -2695 -2686 0
2696 -2695 2686 0
2696 2695 -2686 0
-2696 0
-2697 4 0
-2697 47 0
-2697 111 0
2697 -4 -47 -111 0
-2698 8 0
-2698 53 0
-2698 117 0
2698 -8 -53 -117 0
-2699 12 0
-2699 59 0
-2699 123 0
2699 -12 -59 -123 0
-2700 16 0
-2700 65 0
-2700 129 0
2700 -16 -65 -129 0
-2701 20 0
-2701 71 0
-2701 135 0
2701 -20 -71 -135 0
-2702 24 0
-2702 77 0
-2702 141 0
2702 -24 -77 -141 0
-2703 28 0
-2703 83 0
-2703 147 0
2703 -28 -83 -147 0
-2704 32 0
-2704 89 0
-2704 153 0
2704 -32 -89 -153 0
-2705 36 0
-2705 95 0
-2705 159 0
2705 -36 -95 -159 0
-2706 40 0
-2706 101 0
-2706 165 0
2706 -40 -101 -165 0
-2707 44 0
-2707 107 0
-2707 171 0
2707 -44 -107 -171 0
-2708 2697 2698 0
-2708 -2697 -2698 0
2708 -2697 2698 0
2708 2697 -2698 0
-2709 2708 2699 0
-2709 -2708 -2699 0
2709 -2708 2699 0
2709 2708 -2699 0
-2710 2709 2700 0
-2710 -2709 -2700 0
2710 -2709 2700 0
2710 2709 -2700 0
-2711 2710 2701 0
-2711 -2710 -2701 0
2711 -2710 2701 0
2711 2710 -2701 0
-2712 2711 2702 0
-2712 -2711 -2702 0
2712 -2711 2702 0
2712 2711 -2702 0
-2713 2712 2703 0
-2713 -2712 -2703 0
2713 -2712 2703 0
2713 2712 -2703 0
-2714 2713 2704 0
-2714 -2713 -2704 0
2714 -2713 2704 0
2714 2713 -2704 0
-2715 2714 2705 0
-2715 -2714 -2705 0
2715 -2714 2705 0
2715 2714 -2705 0
-2716 2715 2706 0
-2716 -2715 -2706 0
2716 -2715 2706 0
2716 2715 -2706 0
-2717 2716 2707 0
-2717 -2716 -2707 0
2717 -2716 2707 0
2717 2716 -2707 0
-2717 0
-2718 4 0
-2718 47 0
-2718 112 0
2718 -4 -47 -112 0
-2719 8 0
-2719 53 0
-2719 118 0
2719 -8 -53 -118 0
-2720 12 0
-2720 59 0
-2720 124 0
2720 -12 -59 -124 0
-2721 16 0
-2721 65 0
-2721 130 0
2721 -16 -65 -130 0
-2722 20 0
-2722 71 0
-2722 136 0
2722 -20 -71 -136 0
-2723 24 0
-2723 77 0
-2723 142 0
2723 -24 -77 -142 0
-2724 28 0
-2724 83 0
-2724 148 0
2724 -28 -83 -148 0
-2725 32 0
-2725 89 0
-2725 154 0
2725 -32 -89 -154 0
-2726 36 0
-2726 95 0
-2726 160 0
2726 -36 -95 -160 0
-2727 40 0
-2727 101 0
-2727 166 0
2727 -40 -101 -166 0
-2728 44 0
-2728 107 0
-2728 172 0
2728 -44 -107 -172 0
-2729 2718 2719 0
-2729 -2718 -2719 0
2729 -2718 2719 0
2729 2718 -2719 0
-2730 2729 2720 0
-2730 -2729 -2720 0
2730 -2729 2720 0
2730 2729 -2720 0
-2731 2730 2721 0
-2731 -2730 -2721 0
2731 -2730 2721 0
2731 2730 -2721 0
-2732 2731 2722 0
-2732 -2731 -2722 0
2732 -2731 2722 0
2732 2731 -2722 0
-2733 2732 2723 0
-2733 -2732 -2723 0
2733 -2732 2723 0
2733 2732 -2723 0
-2734 2733 2724 0
-2734 -2733 -2724 0
2734 -2733 2724 0
2734 2733 -2724 0
-2735 2734 2725 0
-2735 -2734 -2725 0
2735 -2734 2725 0
2735 2734 -2725 0
-2736 2735 2726 0
-2736 -2735 -2726 0
2736 -2735 2726 0
2736 2735 -2726 0
-2737 2736 2727 0
-2737 -2736 -2727 0
2737 -2736 2727 0
2737 2736 -2727 0
-2738 2737 2728 0
-2738 -2737 -2728 0
2738 -2737 2728 0
2738 2737 -2728 0
-2738 0
-2739 4 0
-2739 47 0
-2739 113 0
2739 -4 -47 -113 0
-2740 8 0
-2740 53 0
-2740 119 0
2740 -8 -53 -119 0
-2741 12 0
-2741 59 0
-2741 125 0
2741 -12 -59 -125 0
-2742 16 0
-2742 65 0
-2742 131 0
2742 -16 -65 -131 0
-2743 20 0
-2743 71 0
-2743 137 0
2743 -20 -71 -137 0
-2744 24 0
-2744 77 0
-2744 143 0
2744 -24 -77 -143 0
-2745 28 0
-2745 83 0
-2745 149 0
2745 -28 -83 -149 0
-2746 32 0
-2746 89 0
-2746 155 0
2746 -32 -89 -155 0
-2747 36 0
-2747 95 0
-2747 161 0
2747 -36 -95 -161 0
-2748 40 0
-2748 101 0
-2748 167 0
2748 -40 -101 -167 0
-2749 44 0
-2749 107 0
-2749 173 0
2749 -44 -107 -173 0
-2750 2739 2740 0
-2750 -2739 -2740 0
2750 -2739 2740 0
2750 2739 -2740 0
-2751 2750 2741 0
-2751 -2750 -2741 0
2751 -2750 2741 0
2751 2750 -2741 0
-2752 2751 2742 0
-2752 -2751 -2742 0
2752 -2751 2742 0
2752 2751 -2742 0
-2753 2752 2743 0
-2753 -2752 -2743 0
2753 -2752 2743 0
2753 2752 -2743 0
-2754 2753 2744 0
-2754 -2753 -2744 0
2754 -2753 2744 0
2754 2753 -2744 0
-2755 2754 2745 0
-2755 -2754 -2745 0
2755 -2754 2745 0
2755 2754 -2745 0
-2756 2755 2746 0
-2756 -2755 -2746 0
2756 -2755 2746 0
2756 2755 -2746 0
-2757 2756 2747 0
-2757 -2756 -2747 0
2757 -2756 2747 0
2757 2756 -2747 0
-2758 2757 2748 0
-2758 -2757 -2748 0
2758 -2757 2748 0
2758 2757 -2748 0
-2759 2758 2749 0
-2759 -2758 -2749 0
2759 -2758 2749 0
2759 2758 -2749 0
-2759 0
-2760 4 0
-2760 47 0
-2760 114 0
2760 -4 -47 -114 0
-2761 8 0
-2761 53 0
-2761 120 0
2761 -8 -53 -120 0
-2762 12 0
-2762 59 0
-2762 126 0
2762 -12 -59 -126 0
-2763 16 0
-2763 65 0
-2763 132 0
2763 -16 -65 -132 0
-2764 20 0
-2764 71 0
-2764 138 0
2764 -20 -71 -138 0
-2765 24 0
-2765 77 0
-2765 144 0
2765 -24 -77 -144 0
-2766 28 0
-2766 83 0
-2766 150 0
2766 -28 -83 -150 0
-2767 32 0
-2767 89 0
-2767 156 0
2767 -32 -89 -156 0
-2768 36 0
-2768 95 0
-2768 162 0
2768 -36 -95 -162 0
-2769 40 0
-2769 101 0
-2769 168 0
2769 -40 -101 -168 0
-2770 44 0
-2770 107 0
-2770 174 0
2770 -44 -107 -174 0
-2771 2760 2761 0
-2771 -2760 -2761 0
2771 -2760 2761 0
2771 2760 -2761 0
-2772 2771 2762 0
-2772 -2771 -2762 0
2772 -2771 2762 0
2772 2771 -2762 0
-2773 2772 2763 0
-2773 -2772 -2763 0
2773 -2772 2763 0
2773 2772 -2763 0
-2774 2773 2764 0
-2774 -2773 -2764 0
2774 -2773 2764 0
2774 2773 -2764 0
-2775 2774 2765 0
-2775 -2774 -2765 0
2775 -2774 2765 0
2775 2774 -2765 0
-2776 2775 2766 0
-2776 -2775 -2766 0
2776 -2775 2766 0
2776 2775 -2766 0
-2777 2776 2767 0
-2777 -2776 -2767 0
2777 -2776 2767 0
2777 2776 -2767 0
-2778 2777 2768 0
-2778 -2777 -2768 0
2778 -2777 2768 0
2778 2777 -2768 0
-2779 2778 2769 0
-2779 -2778 -2769 0
2779 -2778 2769 0
2779 2778 -2769 0
-2780 2779 2770 0
-2780 -2779 -2770 0
2780 -2779 2770 0
2780 2779 -2770 0
-2780 0
-2781 4 0
-2781 47 0
-2781 115 0
2781 -4 -47 -115 0
-2782 8 0
-2782 53 0
-2782 121 0
2782 -8 -53 -121 0
-2783 12 0
-2783 59 0
-2783 127 0
2783 -12 -59 -127 0
-2784 16 0
-2784 65 0
-2784 133 0
2784 -16 -65 -133 0
-2785 20 0
-2785 71 0
-2785 139 0
2785 -20 -71 -139 0
-2786 24 0
-2786 77 0
-2786 145 0
2786 -24 -77 -145 0
-2787 28 0
-2787 83 0
-2787 151 0
2787 -28 -83 -151 0
-2788 32 0
-2788 89 0
-2788 157 0
2788 -32 -89 -157 0
-2789 36 0
-2789 95 0
-2789 163 0
2789 -36 -95 -163 0
-2790 40 0
-2790 101 0
-2790 169 0
2790 -40 -101 -169 0
-2791 44 0
-2791 107 0
-2791 175 0
2791 -44 -107 -175 0
-2792 2781 2782 0
-2792 -2781 -2782 0
2792 -2781 2782 0
2792 2781 -2782 0
-2793 2792 2783 0
-2793 -2792 -2783 0
2793 -2792 2783 0
2793 2792 -2783 0
-2794 2793 2784 0
-2794 -2793 -2784 0
2794 -2793 2784 0
2794 2793 -2784 0
-2795 2794 2785 0
-2795 -2794 -2785 0
2795 -2794 2785 0
2795 2794 -2785 0
-2796 2795 2786 0
-2796 -2795 -2786 0
2796 -2795 2786 0
2796 2795 -2786 0
-2797 2796 2787 0
-2797 -2796 -2787 0
2797 -2796 2787 0
2797 2796 -2787 0
-2798 2797 2788 0
-2798 -2797 -2788 0
2798 -2797 2788 0
2798 2797 -2788 0
-2799 2798 2789 0
-2799 -2798 -2789 0
2799 -2798 2789 0
2799 2798 -2789 0
-2800 2799 2790 0
-2800 -2799 -2790 0
2800 -2799 2790 0
2800 2799 -2790 0
-2801 2800 2791 0
-2801 -2800 -2791 0
2801 -2800 2791 0
2801 2800 -2791 0
-2801 0
-2802 4 0
-2802 47 0
-2802 116 0
2802 -4 -47 -116 0
-2803 8 0
-2803 53 0
-2803 122 0
2803 -8 -53 -122 0
-2804 12 0
-2804 59 0
-2804 128 0
2804 -12 -59 -128 0
-2805 16 0
-2805 65 0
-2805 134 0
2805 -16 -65 -134 0
-2806 20 0
-2806 71 0
-2806 140 0
2806 -20 -71 -140 0
-2807 24 0
-2807 77 0
-2807 146 0
2807 -24 -77 -146 0
-2808 28 0
-2808 83 0
-2808 152 0
2808 -28 -83 -152 0
-2809 32 0
-2809 89 0
-2809 158 0
2809 -32 -89 -158 0
-2810 36 0
-2810 95 0
-2810 164 0
2810 -36 -95 -164 0
-2811 40 0
-2811 101 0
-2811 170 0
2811 -40 -101 -170 0
-2812 44 0
-2812 107 0
-2812 176 0
2812 -44 -107 -176 0
-2813 2802 2803 0
-2813 -2802 -2803 0
2813 -2802 2803 0
2813 2802 -2803 0
-2814 2813 2804 0
-2814 -2813 -2804 0
2814 -2813 2804 0
2814 2813 -2804 0
-2815 2814 2805 0
-2815 -2814 -2805 0
2815 -2814 2805 0
2815 2814 -2805 0
-2816 2815 2806 0
-2816 -2815 -2806 0
2816 -2815 2806 0
2816 2815 -2806 0
-2817 2816 2807 0
-2817 -2816 -2807 0
2817 -2816 2807 0
2817 2816 -2807 0
-2818 2817 2808 0
-2818 -2817 -2808 0
2818 -2817 2808 0
2818 2817 -2808 0
-2819 2818 2809 0
-2819 -2818 -2809 0
2819 -2818 2809 0
2819 2818 -2809 0
-2820 2819 2810 0
-2820 -2819 -2810 0
2820 -2819 2810 0
2820 2819 -2810 0
-2821 2820 2811 0
-2821 -2820 -2811 0
2821 -2820 2811 0
2821 2820 -2811 0
-2822 2821 2812 0
-2822 -2821 -2812 0
2822 -2821 2812 0
2822 2821 -2812 0
-2822 0
-2823 4 0
-2823 48 0
-2823 111 0
2823 -4 -48 -111 0
-2824 8 0
-2824 54 0
-2824 117 0
2824 -8 -54 -117 0
-2825 12 0
-2825 60 0
-2825 123 0
2825 -12 -60 -123 0
-2826 16 0
-2826 66 0
-2826 129 0
2826 -16 -66 -129 0
-2827 20 0
-2827 72 0
-2827 135 0
2827 -20 -72 -135 0
-2828 24 0
-2828 78 0
-2828 141 0
2828 -24 -78 -141 0
-2829 28 0
-2829 84 0
-2829 147 0
2829 -28 -84 -147 0
-2830 32 0
-2830 90 0
-2830 153 0
2830 -32 -90 -153 0
-2831 36 0
-2831 96 0
-2831 159 0
2831 -36 -96 -159 0
-2832 40 0
-2832 102 0
-2832 165 0
2832 -40 -102 -165 0
-2833 44 0
-2833 108 0
-2833 171 0
2833 -44 -108 -171 0
-2834 2823 2824 0
-2834 -2823 -2824 0
2834 -2823 2824 0
2834 2823 -2824 0
-2835 2834 2825 0
-2835 -2834 -2825 0
2835 -2834 2825 0
2835 2834 -2825 0
-2836 2835 2826 0
-2836 -2835 -2826 0
2836 -2835 2826 0
2836 2835 -2826 0
-2837 2836 2827 0
-2837 -2836 -2827 0
2837 -2836 2827 0
2837 2836 -2827 0
-2838 2837 2828 0
-2838 -2837 -2828 0
2838 -2837 2828 0
2838 2837 -2828 0
-2839 2838 2829 0
-2839 -2838 -2829 0
2839 -2838 2829 0
2839 2838 -2829 0
-2840 2839 2830 0
-2840 -2839 -2830 0
2840 -2839 2830 0
2840 2839 -2830 0
-2841 2840 2831 0
-2841 -2840 -2831 0
2841 -2840 2831 0
2841 2840 -2831 0
-2842 2841 2832 0
-2842 -2841 -2832 0
2842 -2841 2832 0
2842 2841 -2832 0
-2843 2842 2833 0
-2843 -2842 -2833 0
2843 -2842 2833 0
2843 2842 -2833 0
-2843 0
-2844 4 0
-2844 48 0
-2844 112 0
2844 -4 -48 -112 0
-2845 8 0
-2845 54 0
-2845 118 0
2845 -8 -54 -118 0
-2846 12 0
-2846 60 0
-2846 124 0
2846 -12 -60 -124 0
-2847 16 0
-2847 66 0
-2847 130 0
2847 -16 -66 -130 0
-2848 20 0
-2848 72 0
-2848 136 0
2848 -20 -72 -136 0
-2849 24 0
-2849 78 0
-2849 142 0
2849 -24 -78 -142 0
-2850 28 0
-2850 84 0
-2850 148 0
2850 -28 -84 -148 0
-2851 32 0
-2851 90 0
-2851 154 0
2851 -32 -90 -154 0
-2852 36 0
-2852 96 0
-2852 160 0
2852 -36 -96 -160 0
-2853 40 0
-2853 102 0
-2853 166 0
2853 -40 -102 -166 0
-2854 44 0
-2854 108 0
-2854 172 0
2854 -44 -108 -172 0
-2855 2844 2845 0
-2855 -2844 -2845 0
2855 -2844 2845 0
2855 2844 -2845 0
-2856 2855 2846 0
-2856 -2855 -2846 0
2856 -2855 2846 0
2856 2855 -2846 0
-2857 2856 2847 0
-2857 -2856 -2847 0
2857 -2856 2847 0
2857 2856 -2847 0
-2858 2857 2848 0
-2858 -2857 -2848 0
2858 -2857 2848 0
2858 2857 -2848 0
-2859 2858 2849 0
-2859 -2858 -2849 0
2859 -2858 2849 0
2859 2858 -2849 0
-2860 2859 2850 0
-2860 -2859 -2850 0
2860 -2859 2850 0
2860 2859 -2850 0
-2861 2860 2851 0
-2861 -2860 -2851 0
2861 -2860 2851 0
2861 2860 -2851 0
-2862 2861 2852 0
-2862 -2861 -2852 0
2862 -2861 2852 0
2862 2861 -2852 0
-2863 2862 2853 0
-2863 -2862 -2853 0
2863 -2862 2853 0
2863 2862 -2853 0
-2864 2863 2854 0
-2864 -2863 -2854 0
2864 -2863 2854 0
2864 2863 -2854 0
-2864 0
-2865 4 0
-2865 48 0
-2865 113 0
2865 -4 -48 -113 0
-2866 8 0
-2866 54 0
-2866 119 0
2866 -8 -54 -119 0
-2867 12 0
-2867 60 0
-2867 125 0
2867 -12 -60 -125 0
-2868 16 0
-2868 66 0
-2868 131 0
2868 -16 -66 -131 0
-2869 20 0
-2869 72 0
-2869 137 0
2869 -20 -72 -137 0
-2870 24 0
-2870 78 0
-2870 143 0
2870 -24 -78 -143 0
-2871 28 0
-2871 84 0
-2871 149 0
2871 -28 -84 -149 0
-2872 32 0
-2872 90 0
-2872 155 0
2872 -32 -90 -155 0
-2873 36 0
-2873 96 0
-2873 161 0
2873 -36 -96 -161 0
-2874 40 0
-2874 102 0
-2874 167 0
2874 -40 -102 -167 0
-2875 44 0
-2875 108 0
-2875 173 0
2875 -44 -108 -173 0
-2876 2865 2866 0
-2876 -2865 -2866 0
2876 -2865 2866 0
2876 2865 -2866 0
-2877 2876 2867 0
-2877 -2876 -2867 0
2877 -2876 2867 0
2877 2876 -2867 0
-2878 2877 2868 0
-2878 -2877 -2868 0
2878 -2877 2868 0
2878 2877 -2868 0
-2879 2878 2869 0
-2879 -2878 -2869 0
2879 -2878 2869 0
2879 2878 -2869 0
-2880 2879 2870 0
-2880 -2879 -2870 0
2880 -2879 2870 0
2880 2879 -2870 0
-2881 2880 2871 0
-2881 -2880 -2871 0
2881 -2880 2871 0
2881 2880 -2871 0
-2882 2881 2872 0
-2882 -2881 -2872 0
2882 -2881 2872 0
2882 2881 -2872 0
-2883 2882 2873 0
-2883 -2882 -2873 0
2883 -2882 2873 0
2883 2882 -2873 0
-2884 2883 2874 0
-2884 -2883 -2874 0
2884 -2883 2874 0
2884 2883 -2874 0
-2885 2884 2875 0
-2885 -2884 -2875 0
2885 -2884 2875 0
2885 2884 -2875 0
-2885 0
-2886 4 0
-2886 48 0
-2886 114 0
2886 -4 -48 -114 0
-2887 8 0
-2887 54 0
-2887 120 0
2887 -8 -54 -120 0
-2888 12 0
-2888 60 0
-2888 126 0
2888 -12 -60 -126 0
-2889 16 0
-2889 66 0
-2889 132 0
2889 -16 -66 -132 0
-2890 20 0
-2890 72 0
-2890 138 0
2890 -20 -72 -138 0
-2891 24 0
-2891 78 0
-2891 144 0
2891 -24 -78 -144 0
-2892 28 0
-2892 84 0
-2892 150 0
2892 -28 -84 -150 0
-2893 32 0
-2893 90 0
-2893 156 0
2893 -32 -90 -156 0
-2894 36 0
-2894 96 0
-2894 162 0
2894 -36 -96 -162 0
-2895 40 0
-2895 102 0
-2895 168 0
2895 -40 -102 -168 0
-2896 44 0
-2896 108 0
-2896 174 0
2896 -44 -108 -174 0
-2897 2886 2887 0
-2897 -2886 -2887 0
2897 -2886 2887 0
2897 2886 -2887 0
-2898 2897 2888 0
-2898 -2897 -2888 0
2898 -2897 2888 0
2898 2897 -2888 0
-2899 2898 2889 0
-2899 -2898 -2889 0
2899 -2898 2889 0
2899 2898 -2889 0
-2900 2899 2890 0
-2900 -2899 -2890 0
2900 -2899 2890 0
2900 2899 -2890 0
-2901 2900 2891 0
-2901 -2900 -2891 0
2901 -2900 2891 0
2901 2900 -2891 0
-2902 2901 2892 0
-2902 -2901 -2892 0
2902 -2901 2892 0
2902 2901 -2892 0
-2903 2902 2893 0
-2903 -2902 -2893 0
2903 -2902 2893 0
2903 2902 -2893 0
-2904 2903 2894 0
-2904 -2903 -2894 0
2904 -2903 2894 0
2904 2903 -2894 0
-2905 2904 2895 0
-2905 -2904 -2895 0
2905 -2904 2895 0
2905 2904 -2895 0
-2906 2905 2896 0
-2906 -2905 -2896 0
2906 -2905 2896 0
2906 2905 -2896 0
2906 0
-2907 4 0
-2907 48 0
-2907 115 0
2907 -4 -48 -115 0
-2908 8 0
-2908 54 0
-2908 121 0
2908 -8 -54 -121 0
-2909 12 0
-2909 60 0
-2909 127 0
2909 -12 -60 -127 0
-2910 16 0
-2910 66 0
-2910 133 0
2910 -16 -66 -133 0
-2911 20 0
-2911 72 0
-2911 139 0
2911 -20 -72 -139 0
-2912 24 0
-2912 78 0
-2912 145 0
2912 -24 -78 -145 0
-2913 28 0
-2913 84 0
-2913 151 0
2913 -28 -84 -151 0
-2914 32 0
-2914 90 0
-2914 157 0
2914 -32 -90 -157 0
-2915 36 0
-2915 96 0
-2915 163 0
2915 -36 -96 -163 0
-2916 40 0
-2916 102 0
-2916 169 0
2916 -40 -102 -169 0
-2917 44 0
-2917 108 0
-2917 175 0
2917 -44 -108 -175 0
-2918 2907 2908 0
-2918 -2907 -2908 0
2918 -2907 2908 0
2918 2907 -2908 0
-2919 2918 2909 0
-2919 -2918 -2909 0
2919 -2918 2909 0
2919 2918 -2909 0
-2920 2919 2910 0
-2920 -2919 -2910 0
2920 -2919 2910 0
2920 2919 -2910 0
-2921 2920 2911 0
-2921 -2920 -2911 0
2921 -2920 2911 0
2921 2920 -2911 0
-2922 2921 2912 0
-2922 -2921 -2912 0
2922 -2921 2912 0
2922 2921 -2912 0
-2923 2922 2913 0
-2923 -2922 -2913 0
2923 -2922 2913 0
2923 2922 -2913 0
-2924 2923 2914 0
-2924 -2923 -2914 0
2924 -2923 2914 0
2924 2923 -2914 0
-2925 2924 2915 0
-2925 -2924 -2915 0
2925 -2924 2915 0
2925 2924 -2915 0
-2926 2925 2916 0
-2926 -2925 -2916 0
2926 -2925 2916 0
2926 2925 -2916 0
-2927 2926 2917 0
-2927 -2926 -2917 0
2927 -2926 2917 0
2927 2926 -2917 0
-2927 0
-2928 4 0
-2928 48 0
-2928 116 0
2928 -4 -48 -116 0
-2929 8 0
-2929 54 0
-2929 122 0
2929 -8 -54 -122 0
-2930 12 0
-2930 60 0
-2930 128 0
2930 -12 -60 -128 0
-2931 16 0
-2931 66 0
-2931 134 0
2931 -16 -66 -134 0
-2932 20 0
-2932 72 0
-2932 140 0
2932 -20 -72 -140 0
-2933 24 0
-2933 78 0
-2933 146 0
2933 -24 -78 -146 0
-2934 28 0
-2934 84 0
-2934 152 0
2934 -28 -84 -152 0
-2935 32 0
-2935 90 0
-2935 158 0
2935 -32 -90 -158 0
-2936 36 0
-2936 96 0
-2936 164 0
2936 -36 -96 -164 0
-2937 40 0
-2937 102 0
-2937 170 0
2937 -40 -102 -170 0
-2938 44 0
-2938 108 0
-2938 176 0
2938 -44 -108 -176 0
-2939 2928 2929 0
-2939 -2928 -2929 0
2939 -2928 2929 0
2939 2928 -2929 0
-2940 2939 2930 0
-2940 -2939 -2930 0
2940 -2939 2930 0
2940 2939 -2930 0
-2941 2940 2931 0
-2941 -2940 -2931 0
2941 -2940 2931 0
2941 2940 -2931 0
-2942 2941 2932 0
-2942 -2941 -2932 0
2942 -2941 2932 0
2942 2941 -2932 0
-2943 2942 2933 0
-2943 -2942 -2933 0
2943 -2942 2933 0
2943 2942 -2933 0
-2944 2943 2934 0
-2944 -2943 -2934 0
2944 -2943 2934 0
2944 2943 -2934 0
-2945 2944 2935 0
-2945 -2944 -2935 0
2945 -2944 2935 0
2945 2944 -2935 0
-2946 2945 2936 0
-2946 -2945 -2936 0
2946 -2945 2936 0
2946 2945 -2936 0
-2947 2946 2937 0
-2947 -2946 -2937 0
2947 -2946 2937 0
2947 2946 -2937 0
-2948 2947 2938 0
-2948 -2947 -2938 0
2948 -2947 2938 0
2948 2947 -2938 0
-2948 0
-2949 4 0
-2949 49 0
-2949 111 0
2949 -4 -49 -111 0
-2950 8 0
-2950 55 0
-2950 117 0
2950 -8 -55 -117 0
-2951 12 0
-2951 61 0
-2951 123 0
2951 -12 -61 -123 0
-2952 16 0
-2952 67 0
-2952 129 0
2952 -16 -67 -129 0
-2953 20 0
-2953 73 0
-2953 135 0
2953 -20 -73 -135 0
-2954 24 0
-2954 79 0
-2954 141 0
2954 -24 -79 -141 0
-2955 28 0
-2955 85 0
-2955 147 0
2955 -28 -85 -147 0
-2956 32 0
-2956 91 0
-2956 153 0
2956 -32 -91 -153 0
-2957 36 0
-2957 97 0
-2957 159 0
2957 -36 -97 -159 0
-2958 40 0
-2958 103 0
-2958 165 0
2958 -40 -103 -165 0
-2959 44 0
-2959 109 0
-2959 171 0
2959 -44 -109 -171 0
-2960 2949 2950 0
-2960 -2949 -2950 0
2960 -2949 2950 0
2960 2949 -2950 0
-2961 2960 2951 0
-2961 -2960 -2951 0
2961 -2960 2951 0
2961 2960 -2951 0
-2962 2961 2952 0
-2962 -2961 -2952 0
2962 -2961 2952 0
2962 2961 -2952 0
-2963 2962 2953 0
-2963 -2962 -2953 0
2963 -2962 2953 0
2963 2962 -2953 0
-2964 2963 2954 0
-2964 -2963 -2954 0
2964 -2963 2954 0
2964 2963 -2954 0
-2965 2964 2955 0
-2965 -2964 -2955 0
2965 -2964 2955 0
2965 2964 -2955 0
-2966 2965 2956 0
-2966 -2965 -2956 0
2966 -2965 2956 0
2966 2965 -2956 0
-2967 2966 2957 0
-2967 -2966 -2957 0
2967 -2966 2957 0
2967 2966 -2957 0
-2968 2967 2958 0
-2968 -2967 -2958 0
2968 -2967 2958 0
2968 2967 -2958 0
-2969 2968 2959 0
-2969 -2968 -2959 0
2969 -2968 2959 0
2969 2968 -2959 0
-2969 0
-2970 4 0
-2970 49 0
-2970 112 0
2970 -4 -49 -112 0
-2971 8 0
-2971 55 0
-2971 118 0
2971 -8 -55 -118 0
-2972 12 0
-2972 61 0
-2972 124 0
2972 -12 -61 -124 0
-2973 16 0
-2973 67 0
-2973 130 0
2973 -16 -67 -130 0
-2974 20 0
-2974 73 0
-2974 136 0
2974 -20 -73 -136 0
-2975 24 0
-2975 79 0
-2975 142 0
2975 -24 -79 -142 0
-2976 28 0
-2976 85 0
-2976 148 0
2976 -28 -85 -148 0
-2977 32 0
-2977 91 0
-2977 154 0
2977 -32 -91 -154 0
-2978 36 0
-2978 97 0
-2978 160 0
2978 -36 -97 -160 0
-2979 40 0
-2979 103 0
-2979 166 0
2979 -40 -103 -166 0
-2980 44 0
-2980 109 0
-2980 172 0
2980 -44 -109 -172 0
-2981 2970 2971 0
-2981 -2970 -2971 0
2981 -2970 2971 0
2981 2970 -2971 0
-2982 2981 2972 0
-2982 -2981 -2972 0
2982 -2981 2972 0
2982 2981 -2972 0
-2983 2982 2973 0
-2983 -2982 -2973 0
2983 -2982 2973 0
2983 2982 -2973 0
-2984 2983 2974 0
-2984 -2983 -2974 0
2984 -2983 2974 0
2984 2983 -2974 0
-2985 2984 2975 0
-2985 -2984 -2975 0
2985 -2984 2975 0
2985 2984 -2975 0
-2986 2985 2976 0
-2986 -2985 -2976 0
2986 -2985 2976 0
2986 2985 -2976 0
-2987 2986 2977 0
-2987 -2986 -2977 0
2987 -2986 2977 0
2987 2986 -2977 0
-2988 2987 2978 0
-2988 -2987 -2978 0
2988 -2987 2978 0
2988 2987 -2978 0
-2989 2988 2979 0
-2989 -2988 -2979 0
2989 -2988 2979 0
2989 2988 -2979 0
-2990 2989 2980 0
-2990 -2989 -2980 0
2990 -2989 2980 0
2990 2989 -2980 0
-2990 0
-2991 4 0
-2991 49 0
-2991 113 0
2991 -4 -49 -113 0
-2992 8 0
-2992 55 0
-2992 119 0
2992 -8 -55 -119 0
-2993 12 0
-2993 61 0
-2993 125 0
2993 -12 -61 -125 0
-2994 16 0
-2994 67 0
-2994 131 0
2994 -16 -67 -131 0
-2995 20 0
-2995 73 0
-2995 137 0
2995 -20 -73 -137 0
-2996 24 0
-2996 79 0
-2996 143 0
2996 -24 -79 -143 0
-2997 28 0
-2997 85 0
-2997 149 0
2997 -28 -85 -149 0
-2998 32 0
-2998 91 0
-2998 155 0
2998 -32 -91 -155 0
-2999 36 0
-2999 97 0
-2999 161 0
2999 -36 -97 -161 0
-3000 40 0
-3000 103 0
-3000 167 0
3000 -40 -103 -167 0
-3001 44 0
-3001 109 0
-3001 173 0
3001 -44 -109 -173 0
-3002 2991 2992 0
-3002 -2991 -2992 0
3002 -2991 2992 0
3002 2991 -2992 0
-3003 3002 2993 0
-3003 -3002 -2993 0
3003 -3002 2993 0
3003 3002 -2993 0
-3004 3003 2994 0
-3004 -3003 -2994 0
3004 -3003 2994 0
3004 3003 -2994 0
-3005 3004 2995 0
-3005 -3004 -2995 0
3005 -3004 2995 0
3005 3004 -2995 0
-3006 3005 2996 0
-3006 -3005 -2996 0
3006 -3005 2996 0
3006 3005 -2996 0
-3007 3006 2997 0
-3007 -3006 -2997 0
3007 -3006 2997 0
3007 3006 -2997 0
-3008 3007 2998 0
-3008 -3007 -2998 0
3008 -3007 2998 0
3008 3007 -2998 0
-3009 3008 2999 0
-3009 -3008 -2999 0
3009 -3008 2999 0
3009 3008 -2999 0
-3010 3009 3000 0
-3010 -3009 -3000 0
3010 -3009 3000 0
3010 3009 -3000 0
-3011 3010 3001 0
-3011 -3010 -3001 0
3011 -3010 3001 0
3011 3010 -3001 0
-3011 0
-3012 4 0
-3012 49 0
-3012 114 0
3012 -4 -49 -114 0
-3013 8 0
-3013 55 0
-3013 120 0
3013 -8 -55 -120 0
-3014 12 0
-3014 61 0
-3014 126 0
3014 -12 -61 -126 0
-3015 16 0
-3015 67 0
-3015 132 0
3015 -16 -67 -132 0
-3016 20 0
-3016 73 0
-3016 138 0
3016 -20 -73 -138 0
-3017 24 0
-3017 79 0
-3017 144 0
3017 -24 -79 -144 0
-3018 28 0
-3018 85 0
-3018 150 0
3018 -28 -85 -150 0
-3019 32 0
-3019 91 0
-3019 156 0
3019 -32 -91 -156 0
-3020 36 0
-3020 97 0
-3020 162 0
3020 -36 -97 -162 0
-3021 40 0
-3021 103 0
-3021 168 0
3021 -40 -103 -168 0
-3022 44 0
-3022 109 0
-3022 174 0
3022 -44 -109 -174 0
-3023 3012 3013 0
-3023 -3012 -3013 0
3023 -3012 3013 0
3023 3012 -3013 0
-3024 3023 3014 0
-3024 -3023 -3014 0
3024 -3023 3014 0
3024 3023 -3014 0
-3025 3024 3015 0
-3025 -3024 -3015 0
3025 -3024 3015 0
3025 3024 -3015 0
-3026 3025 3016 0
-3026 -3025 -3016 0
3026 -3025 3016 0
3026 3025 -3016 0
-3027 3026 3017 0
-3027 -3026 -3017 0
3027 -3026 3017 0
3027 3026 -3017 0
-3028 3027 3018 0
-3028 -3027 -3018 0
3028 -3027 3018 0
3028 3027 -3018 0
-3029 3028 3019 0
-3029 -3028 -3019 0
3029 -3028 3019 0
3029 3028 -3019 0
-3030 3029 3020 0
-3030 -3029 -3020 0
3030 -3029 3020 0
3030 3029 -3020 0
-3031 3030 3021 0
-3031 -3030 -3021 0
3031 -3030 3021 0
3031 3030 -3021 0
-3032 3031 3022 0
-3032 -3031 -3022 0
3032 -3031 3022 0
3032 3031 -3022 0
-3032 0
-3033 4 0
-3033 49 0
-3033 115 0
3033 -4 -49 -115 0
-3034 8 0
-3034 55 0
-3034 121 0
3034 -8 -55 -121 0
-3035 12 0
-3035 61 0
-3035 127 0
3035 -12 -61 -127 0
-3036 16 0
-3036 67 0
-3036 133 0
3036 -16 -67 -133 0
-3037 20 0
-3037 73 0
-3037 139 0
3037 -20 -73 -139 0
-3038 24 0
-3038 79 0
-3038 145 0
3038 -24 -79 -145 0
-3039 28 0
-3039 85 0
-3039 151 0
3039 -28 -85 -151 0
-3040 32 0
-3040 91 0
-3040 157 0
3040 -32 -91 -157 0
-3041 36 0
-3041 97 0
-3041 163 0
3041 -36 -97 -163 0
-3042 40 0
-3042 103 0
-3042 169 0
3042 -40 -103 -169 0
-3043 44 0
-3043 109 0
-3043 175 0
3043 -44 -109 -175 0
-3044 3033 3034 0
-3044 -3033 -3034 0
3044 -3033 3034 0
3044 3033 -3034 0
-3045 3044 3035 0
-3045 -3044 -3035 0
3045 -3044 3035 0
3045 3044 -3035 0
-3046 3045 3036 0
-3046 -3045 -3036 0
3046 -3045 3036 0
3046 3045 -3036 0
-3047 3046 3037 0
-3047 -3046 -3037 0
3047 -3046 3037 0
3047 3046 -3037 0
-3048 3047 3038 0
-3048 -3047 -3038 0
3048 -3047 3038 0
3048 3047 -3038 0
-3049 3048 3039 0
-3049 -3048 -3039 0
3049 -3048 3039 0
3049 3048 -3039 0
-3050 3049 3040 0
-3050 -3049 -3040 0
3050 -3049 3040 0
3050 3049 -3040 0
-3051 3050 3041 0
-3051 -3050 -3041 0
3051 -3050 3041 0
3051 3050 -3041 0
-3052 3051 3042 0
-3052 -3051 -3042 0
3052 -3051 3042 0
3052 3051 -3042 0
-3053 3052 3043 0
-3053 -3052 -3043 0
3053 -3052 3043 0
3053 3052 -3043 0
3053 0
-3054 4 0
-3054 49 0
-3054 116 0
3054 -4 -49 -116 0
-3055 8 0
-3055 55 0
-3055 122 0
3055 -8 -55 -122 0
-3056 12 0
-3056 61 0
-3056 128 0
3056 -12 -61 -128 0
-3057 16 0
-3057 67 0
-3057 134 0
3057 -16 -67 -134 0
-3058 20 0
-3058 73 0
-3058 140 0
3058 -20 -73 -140 0
-3059 24 0
-3059 79 0
-3059 146 0
3059 -24 -79 -146 0
-3060 28 0
-3060 85 0
-3060 152 0
3060 -28 -85 -152 0
-3061 32 0
-3061 91 0
-3061 158 0
3061 -32 -91 -158 0
-3062 36 0
-3062 97 0
-3062 164 0
3062 -36 -97 -164 0
-3063 40 0
-3063 103 0
-3063 170 0
3063 -40 -103 -170 0
-3064 44 0
-3064 109 0
-3064 176 0
3064 -44 -109 -176 0
-3065 3054 3055 0
-3065 -3054 -3055 0
3065 -3054 3055 0
3065 3054 -3055 0
-3066 3065 3056 0
-3066 -3065 -3056 0
3066 -3065 3056 0
3066 3065 -3056 0
-3067 3066 3057 0
-3067 -3066 -3057 0
3067 -3066 3057 0
3067 3066 -3057 0
-3068 3067 3058 0
-3068 -3067 -3058 0
3068 -3067 3058 0
3068 3067 -3058 0
-3069 3068 3059 0
-3069 -3068 -3059 0
3069 -3068 3059 0
3069 3068 -3059 0
-3070 3069 3060 0
-3070 -3069 -3060 0
3070 -3069 3060 0
3070 3069 -3060 0
-3071 3070 3061 0
-3071 -3070 -3061 0
3071 -3070 3061 0
3071 3070 -3061 0
-3072 3071 3062 0
-3072 -3071 -3062 0
3072 -3071 3062 0
3072 3071 -3062 0
-3073 3072 3063 0
-3073 -3072 -3063 0
3073 -3072 3063 0
3073 3072 -3063 0
-3074 3073 3064 0
-3074 -3073 -3064 0
3074 -3073 3064 0
3074 3073 -3064 0
-3074 0
-3075 4 0
-3075 50 0
-3075 111 0
3075 -4 -50 -111 0
-3076 8 0
-3076 56 0
-3076 117 0
3076 -8 -56 -117 0
-3077 12 0
-3077 62 0
-3077 123 0
3077 -12 -62 -123 0
-3078 16 0
-3078 68 0
-3078 129 0
3078 -16 -68 -129 0
-3079 20 0
-3079 74 0
-3079 135 0
3079 -20 -74 -135 0
-3080 24 0
-3080 80 0
-3080 141 0
3080 -24 -80 -141 0
-3081 28 0
-3081 86 0
-3081 147 0
3081 -28 -86 -147 0
-3082 32 0
-3082 92 0
-3082 153 0
3082 -32 -92 -153 0
-3083 36 0
-3083 98 0
-3083 159 0
3083 -36 -98 -159 0
-3084 40 0
-3084 104 0
-3084 165 0
3084 -40 -104 -165 0
-3085 44 0
-3085 110 0
-3085 171 0
3085 -44 -110 -171 0
-3086 3075 3076 0
-3086 -3075 -3076 0
3086 -3075 3076 0
3086 3075 -3076 0
-3087 3086 3077 0
-3087 -3086 -3077 0
3087 -3086 3077 0
3087 3086 -3077 0
-3088 3087 3078 0
-3088 -3087 -3078 0
3088 -3087 3078 0
3088 3087 -3078 0
-3089 3088 3079 0
-3089 -3088 -3079 0
3089 -3088 3079 0
3089 3088 -3079 0
-3090 3089 3080 0
-3090 -3089 -3080 0
3090 -3089 3080 0
3090 3089 -3080 0
-3091 3090 3081 0
-3091 -3090 -3081 0
3091 -3090 3081 0
3091 3090 -3081 0
-3092 3091 3082 0
-3092 -3091 -3082 0
3092 -3091 3082 0
3092 3091 -3082 0
-3093 3092 3083 0
-3093 -3092 -3083 0
3093 -3092 3083 0
3093 3092 -3083 0
-3094 3093 3084 0
-3094 -3093 -3084 0
3094 -3093 3084 0
3094 3093 -3084 0
-3095 3094 3085 0
-3095 -3094 -3085 0
3095 -3094 3085 0
3095 3094 -3085 0
-3095 0
-3096 4 0
-3096 50 0
-3096 112 0
3096 -4 -50 -112 0
-3097 8 0
-3097 56 0
-3097 118 0
3097 -8 -56 -118 0
-3098 12 0
-3098 62 0
-3098 124 0
3098 -12 -62 -124 0
-3099 16 0
-3099 68 0
-3099 130 0
3099 -16 -68 -130 0
-3100 20 0
-3100 74 0
-3100 136 0
3100 -20 -74 -136 0
-3101 24 0
-3101 80 0
-3101 142 0
3101 -24 -80 -142 0
-3102 28 0
-3102 86 0
-3102 148 0
3102 -28 -86 -148 0
-3103 32 0
-3103 92 0
-3103 154 0
3103 -32 -92 -154 0
-3104 36 0
-3104 98 0
-3104 160 0
3104 -36 -98 -160 0
-3105 40 0
-3105 104 0
-3105 166 0
3105 -40 -104 -166 0
-3106 44 0
-3106 110 0
-3106 172 0
3106 -44 -110 -172 0
-3107 3096 3097 0
-3107 -3096 -3097 0
3107 -3096 3097 0
3107 3096 -3097 0
-3108 3107 3098 0
-3108 -3107 -3098 0
3108 -3107 3098 0
3108 3107 -3098 0
-3109 3108 3099 0
-3109 -3108 -3099 0
3109 -3108 3099 0
3109 3108 -3099 0
-3110 3109 3100 0
-3110 -3109 -3100 0
3110 -3109 3100 0
3110 3109 -3100 0
-3111 3110 3101 0
-3111 -3110 -3101 0
3111 -3110 3101 0
3111 3110 -3101 0
-3112 3111 3102 0
-3112 -3111 -3102 0
3112 -3111 3102 0
3112 3111 -3102 0
-3113 3112 3103 0
-3113 -3112 -3103 0
3113 -3112 3103 0
3113 3112 -3103 0
-3114 3113 3104 0
-3114 -3113 -3104 0
3114 -3113 3104 0
3114 3113 -3104 0
-3115 3114 3105 0
-3115 -3114 -3105 0
3115 -3114 3105 0
3115 3114 -3105 0
-3116 3115 3106 0
-3116 -3115 -3106 0
3116 -3115 3106 0
3116 3115 -3106 0
-3116 0
-3117 4 0
-3117 50 0
-3117 113 0
3117 -4 -50 -113 0
-3118 8 0
-3118 56 0
-3118 119 0
3118 -8 -56 -119 0
-3119 12 0
-3119 62 0
-3119 125 0
3119 -12 -62 -125 0
-3120 16 0
-3120 68 0
-3120 131 0
3120 -16 -68 -131 0
-3121 20 0
-3121 74 0
-3121 137 0
3121 -20 -74 -137 0
-3122 24 0
-3122 80 0
-3122 143 0
3122 -24 -80 -143 0
-3123 28 0
-3123 86 0
-3123 149 0
3123 -28 -86 -149 0
-3124 32 0
-3124 92 0
-3124 155 0
3124 -32 -92 -155 0
-3125 36 0
-3125 98 0
-3125 161 0
3125 -36 -98 -161 0
-3126 40 0
-3126 104 0
-3126 167 0
3126 -40 -104 -167 0
-3127 44 0
-3127 110 0
-3127 173 0
3127 -44 -110 -173 0
-3128 3117 3118 0
-3128 -3117 -3118 0
3128 -3117 3118 0
3128 3117 -3118 0
-3129 3128 3119 0
-3129 -3128 -3119 0
3129 -3128 3119 0
3129 3128 -3119 0
-3130 3129 3120 0
-3130 -3129 -3120 0
3130 -3129 3120 0
3130 3129 -3120 0
-3131 3130 3121 0
-3131 -3130 -3121 0
3131 -3130 3121 0
3131 3130 -3121 0
-3132 3131 3122 0
-3132 -3131 -3122 0
3132 -3131 3122 0
3132 3131 -3122 0
-3133 3132 3123 0
-3133 -3132 -3123 0
3133 -3132 3123 0
3133 3132 -3123 0
-3134 3133 3124 0
-3134 -3133 -3124 0
3134 -3133 3124 0
3134 3133 -3124 0
-3135 3134 3125 0
-3135 -3134 -3125 0
3135 -3134 3125 0
3135 3134 -3125 0
-3136 3135 3126 0
-3136 -3135 -3126 0
3136 -3135 3126 0
3136 3135 -3126 0
-3137 3136 3127 0
-3137 -3136 -3127 0
3137 -3136 3127 0
3137 3136 -3127 0
-3137 0
-3138 4 0
-3138 50 0
-3138 114 0
3138 -4 -50 -114 0
-3139 8 0
-3139 56 0
-3139 120 0
3139 -8 -56 -120 0
-3140 12 0
-3140 62 0
-3140 126 0
3140 -12 -62 -126 0
-3141 16 0
-3141 68 0
-3141 132 0
3141 -16 -68 -132 0
-3142 20 0
-3142 74 0
-3142 138 0
3142 -20 -74 -138 0
-3143 24 0
-3143 80 0
-3143 144 0
3143 -24 -80 -144 0
-3144 28 0
-3144 86 0
-3144 150 0
3144 -28 -86 -150 0
-3145 32 0
-3145 92 0
-3145 156 0
3145 -32 -92 -156 0
-3146 36 0
-3146 98 0
-3146 162 0
3146 -36 -98 -162 0
-3147 40 0
-3147 104 0
-3147 168 0
3147 -40 -104 -168 0
-3148 44 0
-3148 110 0
-3148 174 0
3148 -44 -110 -174 0
-3149 3138 3139 0
-3149 -3138 -3139 0
3149 -3138 3139 0
3149 3138 -3139 0
-3150 3149 3140 0
-3150 -3149 -3140 0
3150 -3149 3140 0
3150 3149 -3140 0
-3151 3150 3141 0
-3151 -3150 -3141 0
3151 -3150 3141 0
3151 3150 -3141 0
-3152 3151 3142 0
-3152 -3151 -3142 0
3152 -3151 3142 0
3152 3151 -3142 0
-3153 3152 3143 0
-3153 -3152 -3143 0
3153 -3152 3143 0
3153 3152 -3143 0
-3154 3153 3144 0
-3154 -3153 -3144 0
3154 -3153 3144 0
3154 3153 -3144 0
-3155 3154 3145 0
-3155 -3154 -3145 0
3155 -3154 3145 0
3155 3154 -3145 0
-3156 3155 3146 0
-3156 -3155 -3146 0
3156 -3155 3146 0
3156 3155 -3146 0
-3157 3156 3147 0
-3157 -3156 -3147 0
3157 -3156 3147 0
3157 3156 -3147 0
-3158 3157 3148 0
-3158 -3157 -3148 0
3158 -3157 3148 0
3158 3157 -3148 0
-3158 0
-3159 4 0
-3159 50 0
-3159 115 0
3159 -4 -50 -115 0
-3160 8 0
-3160 56 0
-3160 121 0
3160 -8 -56 -121 0
-3161 12 0
-3161 62 0
-3161 127 0
3161 -12 -62 -127 0
-3162 16 0
-3162 68 0
-3162 133 0
3162 -16 -68 -133 0
-3163 20 0
-3163 74 0
-3163 139 0
3163 -20 -74 -139 0
-3164 24 0
-3164 80 0
-3164 145 0
3164 -24 -80 -145 0
-3165 28 0
-3165 86 0
-3165 151 0
3165 -28 -86 -151 0
-3166 32 0
-3166 92 0
-3166 157 0
3166 -32 -92 -157 0
-3167 36 0
-3167 98 0
-3167 163 0
3167 -36 -98 -163 0
-3168 40 0
-3168 104 0
-3168 169 0
3168 -40 -104 -169 0
-3169 44 0
-3169 110 0
-3169 175 0
3169 -44 -110 -175 0
-3170 3159 3160 0
-3170 -3159 -3160 0
3170 -3159 3160 0
3170 3159 -3160 0
-3171 3170 3161 0
-3171 -3170 -3161 0
3171 -3170 3161 0
3171 3170 -3161 0
-3172 3171 3162 0
-3172 -3171 -3162 0
3172 -3171 3162 0
3172 3171 -3162 0
-3173 3172 3163 0
-3173 -3172 -3163 0
3173 -3172 3163 0
3173 3172 -3163 0
-3174 3173 3164 0
-3174 -3173 -3164 0
3174 -3173 3164 0
3174 3173 -3164 0
-3175 3174 3165 0
-3175 -3174 -3165 0
3175 -3174 3165 0
3175 3174 -3165 0
-3176 3175 3166 0
-3176 -3175 -3166 0
3176 -3175 3166 0
3176 3175 -3166 0
-3177 3176 3167 0
-3177 -3176 -3167 0
3177 -3176 3167 0
3177 3176 -3167 0
-3178 3177 3168 0
-3178 -3177 -3168 0
3178 -3177 3168 0
3178 3177 -3168 0
-3179 3178 3169 0
-3179 -3178 -3169 0
3179 -3178 3169 0
3179 3178 -3169 0
-3179 0
-3180 4 0
-3180 50 0
-3180 116 0
3180 -4 -50 -116 0
-3181 8 0
-3181 56 0
-3181 122 0
3181 -8 -56 -122 0
-3182 12 0
-3182 62 0
-3182 128 0
3182 -12 -62 -128 0
-3183 16 0
-3183 68 0
-3183 134 0
3183 -16 -68 -134 0
-3184 20 0
-3184 74 0
-3184 140 0
3184 -20 -74 -140 0
-3185 24 0
-3185 80 0
-3185 146 0
3185 -24 -80 -146 0
-3186 28 0
-3186 86 0
-3186 152 0
3186 -28 -86 -152 0
-3187 32 0
-3187 92 0
-3187 158 0
3187 -32 -92 -158 0
-3188 36 0
-3188 98 0
-3188 164 0
3188 -36 -98 -164 0
-3189 40 0
-3189 104 0
-3189 170 0
3189 -40 -104 -170 0
-3190 44 0
-3190 110 0
-3190 176 0
3190 -44 -110 -176 0
-3191 3180 3181 0
-3191 -3180 -3181 0
3191 -3180 3181 0
3191 3180 -3181 0
-3192 3191 3182 0
-3192 -3191 -3182 0
3192 -3191 3182 0
3192 3191 -3182 0
-3193 3192 3183 0
-3193 -3192 -3183 0
3193 -3192 3183 0
3193 3192 -3183 0
-3194 3193 3184 0
-3194 -3193 -3184 0
3194 -3193 3184 0
3194 3193 -3184 0
-3195 3194 3185 0
-3195 -3194 -3185 0
3195 -3194 3185 0
3195 3194 -3185 0
-3196 3195 3186 0
-3196 -3195 -3186 0
3196 -3195 3186 0
3196 3195 -3186 0
-3197 3196 3187 0
-3197 -3196 -3187 0
3197 -3196 3187 0
3197 3196 -3187 0
-3198 3197 3188 0
-3198 -3197 -3188 0
3198 -3197 3188 0
3198 3197 -3188 0
-3199 3198 3189 0
-3199 -3198 -3189 0
3199 -3198 3189 0
3199 3198 -3189 0
-3200 3199 3190 0
-3200 -3199 -3190 0
3200 -3199 3190 0
3200 3199 -3190 0
3200 0
