p cnf 916 3392
-85 1 0
-85 29 0
-85 57 0
85 -1 -29 -57 0
-86 5 0
-86 33 0
-86 61 0
86 -5 -33 -61 0
-87 9 0
-87 37 0
-87 65 0
87 -9 -37 -65 0
-88 13 0
-88 41 0
-88 69 0
88 -13 -41 -69 0
-89 17 0
-89 45 0
-89 73 0
89 -17 -45 -73 0
-90 21 0
-90 49 0
-90 77 0
90 -21 -49 -77 0
-91 25 0
-91 53 0
-91 81 0
91 -25 -53 -81 0
-92 85 86 0
-92 -85 -86 0
92 -85 86 0
92 85 -86 0
-93 92 87 0
-93 -92 -87 0
93 -92 87 0
93 92 -87 0
-94 93 88 0
-94 -93 -88 0
94 -93 88 0
94 93 -88 0
-95 94 89 0
-95 -94 -89 0
95 -94 89 0
95 94 -89 0
-96 95 90 0
-96 -95 -90 0
96 -95 90 0
96 95 -90 0
-97 96 91 0
-97 -96 -91 0
97 -96 91 0
97 96 -91 0
97 0
-98 1 0
-98 29 0
-98 58 0
98 -1 -29 -58 0
-99 5 0
-99 33 0
-99 62 0
99 -5 -33 -62 0
-100 9 0
-100 37 0
-100 66 0
100 -9 -37 -66 0
-101 13 0
-101 41 0
-101 70 0
101 -13 -41 -70 0
-102 17 0
-102 45 0
-102 74 0
102 -17 -45 -74 0
-103 21 0
-103 49 0
-103 78 0
103 -21 -49 -78 0
-104 25 0
-104 53 0
-104 82 0
104 -25 -53 -82 0
-105 98 99 0
-105 -98 -99 0
105 -98 99 0
105 98 -99 0
-106 105 100 0
-106 -105 -100 0
106 -105 100 0
106 105 -100 0
-107 106 101 0
-107 -106 -101 0
107 -106 101 0
107 106 -101 0
-108 107 102 0
-108 -107 -102 0
108 -107 102 0
108 107 -102 0
-109 108 103 0
-109 -108 -103 0
109 -108 103 0
109 108 -103 0
-110 109 104 0
-110 -109 -104 0
110 -109 104 0
110 109 -104 0
-110 0
-111 1 0
-111 29 0
-111 59 0
111 -1 -29 -59 0
-112 5 0
-112 33 0
-112 63 0
112 -5 -33 -63 0
-113 9 0
-113 37 0
-113 67 0
113 -9 -37 -67 0
-114 13 0
-114 41 0
-114 71 0
114 -13 -41 -71 0
-115 17 0
-115 45 0
-115 75 0
115 -17 -45 -75 0
-116 21 0
-116 49 0
-116 79 0
116 -21 -49 -79 0
-117 25 0
-117 53 0
-117 83 0
117 -25 -53 -83 0
-118 111 112 0
-118 -111 -112 0
118 -111 112 0
118 111 -112 0
-119 118 113 0
-119 -118 -113 0
119 -118 113 0
119 118 -113 0
-120 119 114 0
-120 -119 -114 0
120 -119 114 0
120 119 -114 0
-121 120 115 0
-121 -120 -115 0
121 -120 115 0
121 120 -115 0
-122 121 116 0
-122 -121 -116 0
122 -121 116 0
122 121 -116 0
-123 122 117 0
-123 -122 -117 0
123 -122 117 0
123 122 -117 0
-123 0
-124 1 0
-124 29 0
-124 60 0
124 -1 -29 -60 0
-125 5 0
-125 33 0
-125 64 0
125 -5 -33 -64 0
-126 9 0
-126 37 0
-126 68 0
126 -9 -37 -68 0
-127 13 0
-127 41 0
-127 72 0
127 -13 -41 -72 0
-128 17 0
-128 45 0
-128 76 0
128 -17 -45 -76 0
-129 21 0
-129 49 0
-129 80 0
129 -21 -49 -80 0
-130 25 0
-130 53 0
-130 84 0
130 -25 -53 -84 0
-131 124 125 0
-131 -124 -125 0
131 -124 125 0
131 124 -125 0
-132 131 126 0
-132 -131 -126 0
132 -131 126 0
132 131 -126 0
-133 132 127 0
-133 -132 -127 0
133 -132 127 0
133 132 -127 0
-134 133 128 0
-134 -133 -128 0
134 -133 128 0
134 133 -128 0
-135 134 129 0
-135 -134 -129 0
135 -134 129 0
135 134 -129 0
-136 135 130 0
-136 -135 -130 0
136 -135 130 0
136 135 -130 0
-136 0
-137 1 0
-137 30 0
-137 57 0
137 -1 -30 -57 0
-138 5 0
-138 34 0
-138 61 0
138 -5 -34 -61 0
-139 9 0
-139 38 0
-139 65 0
139 -9 -38 -65 0
-140 13 0
-140 42 0
-140 69 0
140 -13 -42 -69 0
-141 17 0
-141 46 0
-141 73 0
141 -17 -46 -73 0
-142 21 0
-142 50 0
-142 77 0
142 -21 -50 -77 0
-143 25 0
-143 54 0
-143 81 0
143 -25 -54 -81 0
-144 137 138 0
-144 -137 -138 0
144 -137 138 0
144 137 -138 0
-145 144 139 0
-145 -144 -139 0
145 -144 139 0
145 144 -139 0
-146 145 140 0
-146 -145 -140 0
146 -145 140 0
146 145 -140 0
-147 146 141 0
-147 -146 -141 0
147 -146 141 0
147 146 -141 0
-148 147 142 0
-148 -147 -142 0
148 -147 142 0
148 147 -142 0
-149 148 143 0
-149 -148 -143 0
149 -148 143 0
149 148 -143 0
-149 0
-150 1 0
-150 30 0
-150 58 0
150 -1 -30 -58 0
-151 5 0
-151 34 0
-151 62 0
151 -5 -34 -62 0
-152 9 0
-152 38 0
-152 66 0
152 -9 -38 -66 0
-153 13 0
-153 42 0
-153 70 0
153 -13 -42 -70 0
-154 17 0
-154 46 0
-154 74 0
154 -17 -46 -74 0
-155 21 0
-155 50 0
-155 78 0
155 -21 -50 -78 0
-156 25 0
-156 54 0
-156 82 0
156 -25 -54 -82 0
-157 150 151 0
-157 -150 -151 0
157 -150 151 0
157 150 -151 0
-158 157 152 0
-158 -157 -152 0
158 -157 152 0
158 157 -152 0
-159 158 153 0
-159 -158 -153 0
159 -158 153 0
159 158 -153 0
-160 159 154 0
-160 -159 -154 0
160 -159 154 0
160 159 -154 0
-161 160 155 0
-161 -160 -155 0
161 -160 155 0
161 160 -155 0
-162 161 156 0
-162 -161 -156 0
162 -161 156 0
162 161 -156 0
162 0
-163 1 0
-163 30 0
-163 59 0
163 -1 -30 -59 0
-164 5 0
-164 34 0
-164 63 0
164 -5 -34 -63 0
-165 9 0
-165 38 0
-165 67 0
165 -9 -38 -67 0
-166 13 0
-166 42 0
-166 71 0
166 -13 -42 -71 0
-167 17 0
-167 46 0
-167 75 0
167 -17 -46 -75 0
-168 21 0
-168 50 0
-168 79 0
168 -21 -50 -79 0
-169 25 0
-169 54 0
-169 83 0
169 -25 -54 -83 0
-170 163 164 0
-170 -163 -164 0
170 -163 164 0
170 163 -164 0
-171 170 165 0
-171 -170 -165 0
171 -170 165 0
171 170 -165 0
-172 171 166 0
-172 -171 -166 0
172 -171 166 0
172 171 -166 0
-173 172 167 0
-173 -172 -167 0
173 -172 167 0
173 172 -167 0
-174 173 168 0
-174 -173 -168 0
174 -173 168 0
174 173 -168 0
-175 174 169 0
-175 -174 -169 0
175 -174 169 0
175 174 -169 0
-175 0
-176 1 0
-176 30 0
-176 60 0
176 -1 -30 -60 0
-177 5 0
-177 34 0
-177 64 0
177 -5 -34 -64 0
-178 9 0
-178 38 0
-178 68 0
178 -9 -38 -68 0
-179 13 0
-179 42 0
-179 72 0
179 -13 -42 -72 0
-180 17 0
-180 46 0
-180 76 0
180 -17 -46 -76 0
-181 21 0
-181 50 0
-181 80 0
181 -21 -50 -80 0
-182 25 0
-182 54 0
-182 84 0
182 -25 -54 -84 0
-183 176 177 0
-183 -176 -177 0
183 -176 177 0
183 176 -177 0
-184 183 178 0
-184 -183 -178 0
184 -183 178 0
184 183 -178 0
-185 184 179 0
-185 -184 -179 0
185 -184 179 0
185 184 -179 0
-186 185 180 0
-186 -185 -180 0
186 -185 180 0
186 185 -180 0
-187 186 181 0
-187 -186 -181 0
187 -186 181 0
187 186 -181 0
-188 187 182 0
-188 -187 -182 0
188 -187 182 0
188 187 -182 0
-188 0
-189 1 0
-189 31 0
-189 57 0
189 -1 -31 -57 0
-190 5 0
-190 35 0
-190 61 0
190 -5 -35 -61 0
-191 9 0
-191 39 0
-191 65 0
191 -9 -39 -65 0
-192 13 0
-192 43 0
-192 69 0
192 -13 -43 -69 0
-193 17 0
-193 47 0
-193 73 0
193 -17 -47 -73 0
-194 21 0
-194 51 0
-194 77 0
194 -21 -51 -77 0
-195 25 0
-195 55 0
-195 81 0
195 -25 -55 -81 0
-196 189 190 0
-196 -189 -190 0
196 -189 190 0
196 189 -190 0
-197 196 191 0
-197 -196 -191 0
197 -196 191 0
197 196 -191 0
-198 197 192 0
-198 -197 -192 0
198 -197 192 0
198 197 -192 0
-199 198 193 0
-199 -198 -193 0
199 -198 193 0
199 198 -193 0
-200 199 194 0
-200 -199 -194 0
200 -199 194 0
200 199 -194 0
-201 200 195 0
-201 -200 -195 0
201 -200 195 0
201 200 -195 0
-201 0
-202 1 0
-202 31 0
-202 58 0
202 -1 -31 -58 0
-203 5 0
-203 35 0
-203 62 0
203 -5 -35 -62 0
-204 9 0
-204 39 0
-204 66 0
204 -9 -39 -66 0
-205 13 0
-205 43 0
-205 70 0
205 -13 -43 -70 0
-206 17 0
-206 47 0
-206 74 0
206 -17 -47 -74 0
-207 21 0
-207 51 0
-207 78 0
207 -21 -51 -78 0
-208 25 0
-208 55 0
-208 82 0
208 -25 -55 -82 0
-209 202 203 0
-209 -202 -203 0
209 -202 203 0
209 202 -203 0
-210 209 204 0
-210 -209 -204 0
210 -209 204 0
210 209 -204 0
-211 210 205 0
-211 -210 -205 0
211 -210 205 0
211 210 -205 0
-212 211 206 0
-212 -211 -206 0
212 -211 206 0
212 211 -206 0
-213 212 207 0
-213 -212 -207 0
213 -212 207 0
213 212 -207 0
-214 213 208 0
-214 -213 -208 0
214 -213 208 0
214 213 -208 0
-214 0
-215 1 0
-215 31 0
-215 59 0
215 -1 -31 -59 0
-216 5 0
-216 35 0
-216 63 0
216 -5 -35 -63 0
-217 9 0
-217 39 0
-217 67 0
217 -9 -39 -67 0
-218 13 0
-218 43 0
-218 71 0
218 -13 -43 -71 0
-219 17 0
-219 47 0
-219 75 0
219 -17 -47 -75 0
-220 21 0
-220 51 0
-220 79 0
220 -21 -51 -79 0
-221 25 0
-221 55 0
-221 83 0
221 -25 -55 -83 0
-222 215 216 0
-222 -215 -216 0
222 -215 216 0
222 215 -216 0
-223 222 217 0
-223 -222 -217 0
223 -222 217 0
223 222 -217 0
-224 223 218 0
-224 -223 -218 0
224 -223 218 0
224 223 -218 0
-225 224 219 0
-225 -224 -219 0
225 -224 219 0
225 224 -219 0
-226 225 220 0
-226 -225 -220 0
226 -225 220 0
226 225 -220 0
-227 226 221 0
-227 -226 -221 0
227 -226 221 0
227 226 -221 0
-227 0
-228 1 0
-228 31 0
-228 60 0
228 -1 -31 -60 0
-229 5 0
-229 35 0
-229 64 0
229 -5 -35 -64 0
-230 9 0
-230 39 0
-230 68 0
230 -9 -39 -68 0
-231 13 0
-231 43 0
-231 72 0
231 -13 -43 -72 0
-232 17 0
-232 47 0
-232 76 0
232 -17 -47 -76 0
-233 21 0
-233 51 0
-233 80 0
233 -21 -51 -80 0
-234 25 0
-234 55 0
-234 84 0
234 -25 -55 -84 0
-235 228 229 0
-235 -228 -229 0
235 -228 229 0
235 228 -229 0
-236 235 230 0
-236 -235 -230 0
236 -235 230 0
236 235 -230 0
-237 236 231 0
-237 -236 -231 0
237 -236 231 0
237 236 -231 0
-238 237 232 0
-238 -237 -232 0
238 -237 232 0
238 237 -232 0
-239 238 233 0
-239 -238 -233 0
239 -238 233 0
239 238 -233 0
-240 239 234 0
-240 -239 -234 0
240 -239 234 0
240 239 -234 0
-240 0
-241 1 0
-241 32 0
-241 57 0
241 -1 -32 -57 0
-242 5 0
-242 36 0
-242 61 0
242 -5 -36 -61 0
-243 9 0
-243 40 0
-243 65 0
243 -9 -40 -65 0
-244 13 0
-244 44 0
-244 69 0
244 -13 -44 -69 0
-245 17 0
-245 48 0
-245 73 0
245 -17 -48 -73 0
-246 21 0
-246 52 0
-246 77 0
246 -21 -52 -77 0
-247 25 0
-247 56 0
-247 81 0
247 -25 -56 -81 0
-248 241 242 0
-248 -241 -242 0
248 -241 242 0
248 241 -242 0
-249 248 243 0
-249 -248 -243 0
249 -248 243 0
249 248 -243 0
-250 249 244 0
-250 -249 -244 0
250 -249 244 0
250 249 -244 0
-251 250 245 0
-251 -250 -245 0
251 -250 245 0
251 250 -245 0
-252 251 246 0
-252 -251 -246 0
252 -251 246 0
252 251 -246 0
-253 252 247 0
-253 -252 -247 0
253 -252 247 0
253 252 -247 0
-253 0
-254 1 0
-254 32 0
-254 58 0
254 -1 -32 -58 0
-255 5 0
-255 36 0
-255 62 0
255 -5 -36 -62 0
-256 9 0
-256 40 0
-256 66 0
256 -9 -40 -66 0
-257 13 0
-257 44 0
-257 70 0
257 -13 -44 -70 0
-258 17 0
-258 48 0
-258 74 0
258 -17 -48 -74 0
-259 21 0
-259 52 0
-259 78 0
259 -21 -52 -78 0
-260 25 0
-260 56 0
-260 82 0
260 -25 -56 -82 0
-261 254 255 0
-261 -254 -255 0
261 -254 255 0
261 254 -255 0
-262 261 256 0
-262 -261 -256 0
262 -261 256 0
262 261 -256 0
-263 262 257 0
-263 -262 -257 0
263 -262 257 0
263 262 -257 0
-264 263 258 0
-264 -263 -258 0
264 -263 258 0
264 263 -258 0
-265 264 259 0
-265 -264 -259 0
265 -264 259 0
265 264 -259 0
-266 265 260 0
-266 -265 -260 0
266 -265 260 0
266 265 -260 0
-266 0
-267 1 0
-267 32 0
-267 59 0
267 -1 -32 -59 0
-268 5 0
-268 36 0
-268 63 0
268 -5 -36 -63 0
-269 9 0
-269 40 0
-269 67 0
269 -9 -40 -67 0
-270 13 0
-270 44 0
-270 71 0
270 -13 -44 -71 0
-271 17 0
-271 48 0
-271 75 0
271 -17 -48 -75 0
-272 21 0
-272 52 0
-272 79 0
272 -21 -52 -79 0
-273 25 0
-273 56 0
-273 83 0
273 -25 -56 -83 0
-274 267 268 0
-274 -267 -268 0
274 -267 268 0
274 267 -268 0
-275 274 269 0
-275 -274 -269 0
275 -274 269 0
275 274 -269 0
-276 275 270 0
-276 -275 -270 0
276 -275 270 0
276 275 -270 0
-277 276 271 0
-277 -276 -271 0
277 -276 271 0
277 276 -271 0
-278 277 272 0
-278 -277 -272 0
278 -277 272 0
278 277 -272 0
-279 278 273 0
-279 -278 -273 0
279 -278 273 0
279 278 -273 0
-279 0
-280 1 0
-280 32 0
-280 60 0
280 -1 -32 -60 0
-281 5 0
-281 36 0
-281 64 0
281 -5 -36 -64 0
-282 9 0
-282 40 0
-282 68 0
282 -9 -40 -68 0
-283 13 0
-283 44 0
-283 72 0
283 -13 -44 -72 0
-284 17 0
-284 48 0
-284 76 0
284 -17 -48 -76 0
-285 21 0
-285 52 0
-285 80 0
285 -21 -52 -80 0
-286 25 0
-286 56 0
-286 84 0
286 -25 -56 -84 0
-287 280 281 0
-287 -280 -281 0
287 -280 281 0
287 280 -281 0
-288 287 282 0
-288 -287 -282 0
288 -287 282 0
288 287 -282 0
-289 288 283 0
-289 -288 -283 0
289 -288 283 0
289 288 -283 0
-290 289 284 0
-290 -289 -284 0
290 -289 284 0
290 289 -284 0
-291 290 285 0
-291 -290 -285 0
291 -290 285 0
291 290 -285 0
-292 291 286 0
-292 -291 -286 0
292 -291 286 0
292 291 -286 0
-292 0
-293 2 0
-293 29 0
-293 57 0
293 -2 -29 -57 0
-294 6 0
-294 33 0
-294 61 0
294 -6 -33 -61 0
-295 10 0
-295 37 0
-295 65 0
295 -10 -37 -65 0
-296 14 0
-296 41 0
-296 69 0
296 -14 -41 -69 0
-297 18 0
-297 45 0
-297 73 0
297 -18 -45 -73 0
-298 22 0
-298 49 0
-298 77 0
298 -22 -49 -77 0
-299 26 0
-299 53 0
-299 81 0
299 -26 -53 -81 0
-300 293 294 0
-300 -293 -294 0
300 -293 294 0
300 293 -294 0
-301 300 295 0
-301 -300 -295 0
301 -300 295 0
301 300 -295 0
-302 301 296 0
-302 -301 -296 0
302 -301 296 0
302 301 -296 0
-303 302 297 0
-303 -302 -297 0
303 -302 297 0
303 302 -297 0
-304 303 298 0
-304 -303 -298 0
304 -303 298 0
304 303 -298 0
-305 304 299 0
-305 -304 -299 0
305 -304 299 0
305 304 -299 0
-305 0
-306 2 0
-306 29 0
-306 58 0
306 -2 -29 -58 0
-307 6 0
-307 33 0
-307 62 0
307 -6 -33 -62 0
-308 10 0
-308 37 0
-308 66 0
308 -10 -37 -66 0
-309 14 0
-309 41 0
-309 70 0
309 -14 -41 -70 0
-310 18 0
-310 45 0
-310 74 0
310 -18 -45 -74 0
-311 22 0
-311 49 0
-311 78 0
311 -22 -49 -78 0
-312 26 0
-312 53 0
-312 82 0
312 -26 -53 -82 0
-313 306 307 0
-313 -306 -307 0
313 -306 307 0
313 306 -307 0
-314 313 308 0
-314 -313 -308 0
314 -313 308 0
314 313 -308 0
-315 314 309 0
-315 -314 -309 0
315 -314 309 0
315 314 -309 0
-316 315 310 0
-316 -315 -310 0
316 -315 310 0
316 315 -310 0
-317 316 311 0
-317 -316 -311 0
317 -316 311 0
317 316 -311 0
-318 317 312 0
-318 -317 -312 0
318 -317 312 0
318 317 -312 0
-318 0
-319 2 0
-319 29 0
-319 59 0
319 -2 -29 -59 0
-320 6 0
-320 33 0
-320 63 0
320 -6 -33 -63 0
-321 10 0
-321 37 0
-321 67 0
321 -10 -37 -67 0
-322 14 0
-322 41 0
-322 71 0
322 -14 -41 -71 0
-323 18 0
-323 45 0
-323 75 0
323 -18 -45 -75 0
-324 22 0
-324 49 0
-324 79 0
324 -22 -49 -79 0
-325 26 0
-325 53 0
-325 83 0
325 -26 -53 -83 0
-326 319 320 0
-326 -319 -320 0
326 -319 320 0
326 319 -320 0
-327 326 321 0
-327 -326 -321 0
327 -326 321 0
327 326 -321 0
-328 327 322 0
-328 -327 -322 0
328 -327 322 0
328 327 -322 0
-329 328 323 0
-329 -328 -323 0
329 -328 323 0
329 328 -323 0
-330 329 324 0
-330 -329 -324 0
330 -329 324 0
330 329 -324 0
-331 330 325 0
-331 -330 -325 0
331 -330 325 0
331 330 -325 0
-331 0
-332 2 0
-332 29 0
-332 60 0
332 -2 -29 -60 0
-333 6 0
-333 33 0
-333 64 0
333 -6 -33 -64 0
-334 10 0
-334 37 0
-334 68 0
334 -10 -37 -68 0
-335 14 0
-335 41 0
-335 72 0
335 -14 -41 -72 0
-336 18 0
-336 45 0
-336 76 0
336 -18 -45 -76 0
-337 22 0
-337 49 0
-337 80 0
337 -22 -49 -80 0
-338 26 0
-338 53 0
-338 84 0
338 -26 -53 -84 0
-339 332 333 0
-339 -332 -333 0
339 -332 333 0
339 332 -333 0
-340 339 334 0
-340 -339 -334 0
340 -339 334 0
340 339 -334 0
-341 340 335 0
-341 -340 -335 0
341 -340 335 0
341 340 -335 0
-342 341 336 0
-342 -341 -336 0
342 -341 336 0
342 341 -336 0
-343 342 337 0
-343 -342 -337 0
343 -342 337 0
343 342 -337 0
-344 343 338 0
-344 -343 -338 0
344 -343 338 0
344 343 -338 0
-344 0
-345 2 0
-345 30 0
-345 57 0
345 -2 -30 -57 0
-346 6 0
-346 34 0
-346 61 0
346 -6 -34 -61 0
-347 10 0
-347 38 0
-347 65 0
347 -10 -38 -65 0
-348 14 0
-348 42 0
-348 69 0
348 -14 -42 -69 0
-349 18 0
-349 46 0
-349 73 0
349 -18 -46 -73 0
-350 22 0
-350 50 0
-350 77 0
350 -22 -50 -77 0
-351 26 0
-351 54 0
-351 81 0
351 -26 -54 -81 0
-352 345 346 0
-352 -345 -346 0
352 -345 346 0
352 345 -346 0
-353 352 347 0
-353 -352 -347 0
353 -352 347 0
353 352 -347 0
-354 353 348 0
-354 -353 -348 0
354 -353 348 0
354 353 -348 0
-355 354 349 0
-355 -354 -349 0
355 -354 349 0
355 354 -349 0
-356 355 350 0
-356 -355 -350 0
356 -355 350 0
356 355 -350 0
-357 356 351 0
-357 -356 -351 0
357 -356 351 0
357 356 -351 0
-357 0
-358 2 0
-358 30 0
-358 58 0
358 -2 -30 -58 0
-359 6 0
-359 34 0
-359 62 0
359 -6 -34 -62 0
-360 10 0
-360 38 0
-360 66 0
360 -10 -38 -66 0
-361 14 0
-361 42 0
-361 70 0
361 -14 -42 -70 0
-362 18 0
-362 46 0
-362 74 0
362 -18 -46 -74 0
-363 22 0
-363 50 0
-363 78 0
363 -22 -50 -78 0
-364 26 0
-364 54 0
-364 82 0
364 -26 -54 -82 0
-365 358 359 0
-365 -358 -359 0
365 -358 359 0
365 358 -359 0
-366 365 360 0
-366 -365 -360 0
366 -365 360 0
366 365 -360 0
-367 366 361 0
-367 -366 -361 0
367 -366 361 0
367 366 -361 0
-368 367 362 0
-368 -367 -362 0
368 -367 362 0
368 367 -362 0
-369 368 363 0
-369 -368 -363 0
369 -368 363 0
369 368 -363 0
-370 369 364 0
-370 -369 -364 0
370 -369 364 0
370 369 -364 0
-370 0
-371 2 0
-371 30 0
-371 59 0
371 -2 -30 -59 0
-372 6 0
-372 34 0
-372 63 0
372 -6 -34 -63 0
-373 10 0
-373 38 0
-373 67 0
373 -10 -38 -67 0
-374 14 0
-374 42 0
-374 71 0
374 -14 -42 -71 0
-375 18 0
-375 46 0
-375 75 0
375 -18 -46 -75 0
-376 22 0
-376 50 0
-376 79 0
376 -22 -50 -79 0
-377 26 0
-377 54 0
-377 83 0
377 -26 -54 -83 0
-378 371 372 0
-378 -371 -372 0
378 -371 372 0
378 371 -372 0
-379 378 373 0
-379 -378 -373 0
379 -378 373 0
379 378 -373 0
-380 379 374 0
-380 -379 -374 0
380 -379 374 0
380 379 -374 0
-381 380 375 0
-381 -380 -375 0
381 -380 375 0
381 380 -375 0
-382 381 376 0
-382 -381 -376 0
382 -381 376 0
382 381 -376 0
-383 382 377 0
-383 -382 -377 0
383 -382 377 0
383 382 -377 0
-383 0
-384 2 0
-384 30 0
-384 60 0
384 -2 -30 -60 0
-385 6 0
-385 34 0
-385 64 0
385 -6 -34 -64 0
-386 10 0
-386 38 0
-386 68 0
386 -10 -38 -68 0
-387 14 0
-387 42 0
-387 72 0
387 -14 -42 -72 0
-388 18 0
-388 46 0
-388 76 0
388 -18 -46 -76 0
-389 22 0
-389 50 0
-389 80 0
389 -22 -50 -80 0
-390 26 0
-390 54 0
-390 84 0
390 -26 -54 -84 0
-391 384 385 0
-391 -384 -385 0
391 -384 385 0
391 384 -385 0
-392 391 386 0
-392 -391 -386 0
392 -391 386 0
392 391 -386 0
-393 392 387 0
-393 -392 -387 0
393 -392 387 0
393 392 -387 0
-394 393 388 0
-394 -393 -388 0
394 -393 388 0
394 393 -388 0
-395 394 389 0
-395 -394 -389 0
395 -394 389 0
395 394 -389 0
-396 395 390 0
-396 -395 -390 0
396 -395 390 0
396 395 -390 0
-396 0
-397 2 0
-397 31 0
-397 57 0
397 -2 -31 -57 0
-398 6 0
-398 35 0
-398 61 0
398 -6 -35 -61 0
-399 10 0
-399 39 0
-399 65 0
399 -10 -39 -65 0
-400 14 0
-400 43 0
-400 69 0
400 -14 -43 -69 0
-401 18 0
-401 47 0
-401 73 0
401 -18 -47 -73 0
-402 22 0
-402 51 0
-402 77 0
402 -22 -51 -77 0
-403 26 0
-403 55 0
-403 81 0
403 -26 -55 -81 0
-404 397 398 0
-404 -397 -398 0
404 -397 398 0
404 397 -398 0
-405 404 399 0
-405 -404 -399 0
405 -404 399 0
405 404 -399 0
-406 405 400 0
-406 -405 -400 0
406 -405 400 0
406 405 -400 0
-407 406 401 0
-407 -406 -401 0
407 -406 401 0
407 406 -401 0
-408 407 402 0
-408 -407 -402 0
408 -407 402 0
408 407 -402 0
-409 408 403 0
-409 -408 -403 0
409 -408 403 0
409 408 -403 0
409 0
-410 2 0
-410 31 0
-410 58 0
410 -2 -31 -58 0
-411 6 0
-411 35 0
-411 62 0
411 -6 -35 -62 0
-412 10 0
-412 39 0
-412 66 0
412 -10 -39 -66 0
-413 14 0
-413 43 0
-413 70 0
413 -14 -43 -70 0
-414 18 0
-414 47 0
-414 74 0
414 -18 -47 -74 0
-415 22 0
-415 51 0
-415 78 0
415 -22 -51 -78 0
-416 26 0
-416 55 0
-416 82 0
416 -26 -55 -82 0
-417 410 411 0
-417 -410 -411 0
417 -410 411 0
417 410 -411 0
-418 417 412 0
-418 -417 -412 0
418 -417 412 0
418 417 -412 0
-419 418 413 0
-419 -418 -413 0
419 -418 413 0
419 418 -413 0
-420 419 414 0
-420 -419 -414 0
420 -419 414 0
420 419 -414 0
-421 420 415 0
-421 -420 -415 0
421 -420 415 0
421 420 -415 0
-422 421 416 0
-422 -421 -416 0
422 -421 416 0
422 421 -416 0
-422 0
-423 2 0
-423 31 0
-423 59 0
423 -2 -31 -59 0
-424 6 0
-424 35 0
-424 63 0
424 -6 -35 -63 0
-425 10 0
-425 39 0
-425 67 0
425 -10 -39 -67 0
-426 14 0
-426 43 0
-426 71 0
426 -14 -43 -71 0
-427 18 0
-427 47 0
-427 75 0
427 -18 -47 -75 0
-428 22 0
-428 51 0
-428 79 0
428 -22 -51 -79 0
-429 26 0
-429 55 0
-429 83 0
429 -26 -55 -83 0
-430 423 424 0
-430 -423 -424 0
430 -423 424 0
430 423 -424 0
-431 430 425 0
-431 -430 -425 0
431 -430 425 0
431 430 -425 0
-432 431 426 0
-432 -431 -426 0
432 -431 426 0
432 431 -426 0
-433 432 427 0
-433 -432 -427 0
433 -432 427 0
433 432 -427 0
-434 433 428 0
-434 -433 -428 0
434 -433 428 0
434 433 -428 0
-435 434 429 0
-435 -434 -429 0
435 -434 429 0
435 434 -429 0
-435 0
-436 2 0
-436 31 0
-436 60 0
436 -2 -31 -60 0
-437 6 0
-437 35 0
-437 64 0
437 -6 -35 -64 0
-438 10 0
-438 39 0
-438 68 0
438 -10 -39 -68 0
-439 14 0
-439 43 0
-439 72 0
439 -14 -43 -72 0
-440 18 0
-440 47 0
-440 76 0
440 -18 -47 -76 0
-441 22 0
-441 51 0
-441 80 0
441 -22 -51 -80 0
-442 26 0
-442 55 0
-442 84 0
442 -26 -55 -84 0
-443 436 437 0
-443 -436 -437 0
443 -436 437 0
443 436 -437 0
-444 443 438 0
-444 -443 -438 0
444 -443 438 0
444 443 -438 0
-445 444 439 0
-445 -444 -439 0
445 -444 439 0
445 444 -439 0
-446 445 440 0
-446 -445 -440 0
446 -445 440 0
446 445 -440 0
-447 446 441 0
-447 -446 -441 0
447 -446 441 0
447 446 -441 0
-448 447 442 0
-448 -447 -442 0
448 -447 442 0
448 447 -442 0
-448 0
-449 2 0
-449 32 0
-449 57 0
449 -2 -32 -57 0
-450 6 0
-450 36 0
-450 61 0
450 -6 -36 -61 0
-451 10 0
-451 40 0
-451 65 0
451 -10 -40 -65 0
-452 14 0
-452 44 0
-452 69 0
452 -14 -44 -69 0
-453 18 0
-453 48 0
-453 73 0
453 -18 -48 -73 0
-454 22 0
-454 52 0
-454 77 0
454 -22 -52 -77 0
-455 26 0
-455 56 0
-455 81 0
455 -26 -56 -81 0
-456 449 450 0
-456 -449 -450 0
456 -449 450 0
456 449 -450 0
-457 456 451 0
-457 -456 -451 0
457 -456 451 0
457 456 -451 0
-458 457 452 0
-458 -457 -452 0
458 -457 452 0
458 457 -452 0
-459 458 453 0
-459 -458 -453 0
459 -458 453 0
459 458 -453 0
-460 459 454 0
-460 -459 -454 0
460 -459 454 0
460 459 -454 0
-461 460 455 0
-461 -460 -455 0
461 -460 455 0
461 460 -455 0
-461 0
-462 2 0
-462 32 0
-462 58 0
462 -2 -32 -58 0
-463 6 0
-463 36 0
-463 62 0
463 -6 -36 -62 0
-464 10 0
-464 40 0
-464 66 0
464 -10 -40 -66 0
-465 14 0
-465 44 0
-465 70 0
465 -14 -44 -70 0
-466 18 0
-466 48 0
-466 74 0
466 -18 -48 -74 0
-467 22 0
-467 52 0
-467 78 0
467 -22 -52 -78 0
-468 26 0
-468 56 0
-468 82 0
468 -26 -56 -82 0
-469 462 463 0
-469 -462 -463 0
469 -462 463 0
469 462 -463 0
-470 469 464 0
-470 -469 -464 0
470 -469 464 0
470 469 -464 0
-471 470 465 0
-471 -470 -465 0
471 -470 465 0
471 470 -465 0
-472 471 466 0
-472 -471 -466 0
472 -471 466 0
472 471 -466 0
-473 472 467 0
-473 -472 -467 0
473 -472 467 0
473 472 -467 0
-474 473 468 0
-474 -473 -468 0
474 -473 468 0
474 473 -468 0
474 0
-475 2 0
-475 32 0
-475 59 0
475 -2 -32 -59 0
-476 6 0
-476 36 0
-476 63 0
476 -6 -36 -63 0
-477 10 0
-477 40 0
-477 67 0
477 -10 -40 -67 0
-478 14 0
-478 44 0
-478 71 0
478 -14 -44 -71 0
-479 18 0
-479 48 0
-479 75 0
479 -18 -48 -75 0
-480 22 0
-480 52 0
-480 79 0
480 -22 -52 -79 0
-481 26 0
-481 56 0
-481 83 0
481 -26 -56 -83 0
-482 475 476 0
-482 -475 -476 0
482 -475 476 0
482 475 -476 0
-483 482 477 0
-483 -482 -477 0
483 -482 477 0
483 482 -477 0
-484 483 478 0
-484 -483 -478 0
484 -483 478 0
484 483 -478 0
-485 484 479 0
-485 -484 -479 0
485 -484 479 0
485 484 -479 0
-486 485 480 0
-486 -485 -480 0
486 -485 480 0
486 485 -480 0
-487 486 481 0
-487 -486 -481 0
487 -486 481 0
487 486 -481 0
-487 0
-488 2 0
-488 32 0
-488 60 0
488 -2 -32 -60 0
-489 6 0
-489 36 0
-489 64 0
489 -6 -36 -64 0
-490 10 0
-490 40 0
-490 68 0
490 -10 -40 -68 0
-491 14 0
-491 44 0
-491 72 0
491 -14 -44 -72 0
-492 18 0
-492 48 0
-492 76 0
492 -18 -48 -76 0
-493 22 0
-493 52 0
-493 80 0
493 -22 -52 -80 0
-494 26 0
-494 56 0
-494 84 0
494 -26 -56 -84 0
-495 488 489 0
-495 -488 -489 0
495 -488 489 0
495 488 -489 0
-496 495 490 0
-496 -495 -490 0
496 -495 490 0
496 495 -490 0
-497 496 491 0
-497 -496 -491 0
497 -496 491 0
497 496 -491 0
-498 497 492 0
-498 -497 -492 0
498 -497 492 0
498 497 -492 0
-499 498 493 0
-499 -498 -493 0
499 -498 493 0
499 498 -493 0
-500 499 494 0
-500 -499 -494 0
500 -499 494 0
500 499 -494 0
-500 0
-501 3 0
-501 29 0
-501 57 0
501 -3 -29 -57 0
-502 7 0
-502 33 0
-502 61 0
502 -7 -33 -61 0
-503 11 0
-503 37 0
-503 65 0
503 -11 -37 -65 0
-504 15 0
-504 41 0
-504 69 0
504 -15 -41 -69 0
-505 19 0
-505 45 0
-505 73 0
505 -19 -45 -73 0
-506 23 0
-506 49 0
-506 77 0
506 -23 -49 -77 0
-507 27 0
-507 53 0
-507 81 0
507 -27 -53 -81 0
-508 501 502 0
-508 -501 -502 0
508 -501 502 0
508 501 -502 0
-509 508 503 0
-509 -508 -503 0
509 -508 503 0
509 508 -503 0
-510 509 504 0
-510 -509 -504 0
510 -509 504 0
510 509 -504 0
-511 510 505 0
-511 -510 -505 0
511 -510 505 0
511 510 -505 0
-512 511 506 0
-512 -511 -506 0
512 -511 506 0
512 511 -506 0
-513 512 507 0
-513 -512 -507 0
513 -512 507 0
513 512 -507 0
-513 0
-514 3 0
-514 29 0
-514 58 0
514 -3 -29 -58 0
-515 7 0
-515 33 0
-515 62 0
515 -7 -33 -62 0
-516 11 0
-516 37 0
-516 66 0
516 -11 -37 -66 0
-517 15 0
-517 41 0
-517 70 0
517 -15 -41 -70 0
-518 19 0
-518 45 0
-518 74 0
518 -19 -45 -74 0
-519 23 0
-519 49 0
-519 78 0
519 -23 -49 -78 0
-520 27 0
-520 53 0
-520 82 0
520 -27 -53 -82 0
-521 514 515 0
-521 -514 -515 0
521 -514 515 0
521 514 -515 0
-522 521 516 0
-522 -521 -516 0
522 -521 516 0
522 521 -516 0
-523 522 517 0
-523 -522 -517 0
523 -522 517 0
523 522 -517 0
-524 523 518 0
-524 -523 -518 0
524 -523 518 0
524 523 -518 0
-525 524 519 0
-525 -524 -519 0
525 -524 519 0
525 524 -519 0
-526 525 520 0
-526 -525 -520 0
526 -525 520 0
526 525 -520 0
-526 0
-527 3 0
-527 29 0
-527 59 0
527 -3 -29 -59 0
-528 7 0
-528 33 0
-528 63 0
528 -7 -33 -63 0
-529 11 0
-529 37 0
-529 67 0
529 -11 -37 -67 0
-530 15 0
-530 41 0
-530 71 0
530 -15 -41 -71 0
-531 19 0
-531 45 0
-531 75 0
531 -19 -45 -75 0
-532 23 0
-532 49 0
-532 79 0
532 -23 -49 -79 0
-533 27 0
-533 53 0
-533 83 0
533 -27 -53 -83 0
-534 527 528 0
-534 -527 -528 0
534 -527 528 0
534 527 -528 0
-535 534 529 0
-535 -534 -529 0
535 -534 529 0
535 534 -529 0
-536 535 530 0
-536 -535 -530 0
536 -535 530 0
536 535 -530 0
-537 536 531 0
-537 -536 -531 0
537 -536 531 0
537 536 -531 0
-538 537 532 0
-538 -537 -532 0
538 -537 532 0
538 537 -532 0
-539 538 533 0
-539 -538 -533 0
539 -538 533 0
539 538 -533 0
539 0
-540 3 0
-540 29 0
-540 60 0
540 -3 -29 -60 0
-541 7 0
-541 33 0
-541 64 0
541 -7 -33 -64 0
-542 11 0
-542 37 0
-542 68 0
542 -11 -37 -68 0
-543 15 0
-543 41 0
-543 72 0
543 -15 -41 -72 0
-544 19 0
-544 45 0
-544 76 0
544 -19 -45 -76 0
-545 23 0
-545 49 0
-545 80 0
545 -23 -49 -80 0
-546 27 0
-546 53 0
-546 84 0
546 -27 -53 -84 0
-547 540 541 0
-547 -540 -541 0
547 -540 541 0
547 540 -541 0
-548 547 542 0
-548 -547 -542 0
548 -547 542 0
548 547 -542 0
-549 548 543 0
-549 -548 -543 0
549 -548 543 0
549 548 -543 0
-550 549 544 0
-550 -549 -544 0
550 -549 544 0
550 549 -544 0
-551 550 545 0
-551 -550 -545 0
551 -550 545 0
551 550 -545 0
-552 551 546 0
-552 -551 -546 0
552 -551 546 0
552 551 -546 0
-552 0
-553 3 0
-553 30 0
-553 57 0
553 -3 -30 -57 0
-554 7 0
-554 34 0
-554 61 0
554 -7 -34 -61 0
-555 11 0
-555 38 0
-555 65 0
555 -11 -38 -65 0
-556 15 0
-556 42 0
-556 69 0
556 -15 -42 -69 0
-557 19 0
-557 46 0
-557 73 0
557 -19 -46 -73 0
-558 23 0
-558 50 0
-558 77 0
558 -23 -50 -77 0
-559 27 0
-559 54 0
-559 81 0
559 -27 -54 -81 0
-560 553 554 0
-560 -553 -554 0
560 -553 554 0
560 553 -554 0
-561 560 555 0
-561 -560 -555 0
561 -560 555 0
561 560 -555 0
-562 561 556 0
-562 -561 -556 0
562 -561 556 0
562 561 -556 0
-563 562 557 0
-563 -562 -557 0
563 -562 557 0
563 562 -557 0
-564 563 558 0
-564 -563 -558 0
564 -563 558 0
564 563 -558 0
-565 564 559 0
-565 -564 -559 0
565 -564 559 0
565 564 -559 0
-565 0
-566 3 0
-566 30 0
-566 58 0
566 -3 -30 -58 0
-567 7 0
-567 34 0
-567 62 0
567 -7 -34 -62 0
-568 11 0
-568 38 0
-568 66 0
568 -11 -38 -66 0
-569 15 0
-569 42 0
-569 70 0
569 -15 -42 -70 0
-570 19 0
-570 46 0
-570 74 0
570 -19 -46 -74 0
-571 23 0
-571 50 0
-571 78 0
571 -23 -50 -78 0
-572 27 0
-572 54 0
-572 82 0
572 -27 -54 -82 0
-573 566 567 0
-573 -566 -567 0
573 -566 567 0
573 566 -567 0
-574 573 568 0
-574 -573 -568 0
574 -573 568 0
574 573 -568 0
-575 574 569 0
-575 -574 -569 0
575 -574 569 0
575 574 -569 0
-576 575 570 0
-576 -575 -570 0
576 -575 570 0
576 575 -570 0
-577 576 571 0
-577 -576 -571 0
577 -576 571 0
577 576 -571 0
-578 577 572 0
-578 -577 -572 0
578 -577 572 0
578 577 -572 0
-578 0
-579 3 0
-579 30 0
-579 59 0
579 -3 -30 -59 0
-580 7 0
-580 34 0
-580 63 0
580 -7 -34 -63 0
-581 11 0
-581 38 0
-581 67 0
581 -11 -38 -67 0
-582 15 0
-582 42 0
-582 71 0
582 -15 -42 -71 0
-583 19 0
-583 46 0
-583 75 0
583 -19 -46 -75 0
-584 23 0
-584 50 0
-584 79 0
584 -23 -50 -79 0
-585 27 0
-585 54 0
-585 83 0
585 -27 -54 -83 0
-586 579 580 0
-586 -579 -580 0
586 -579 580 0
586 579 -580 0
-587 586 581 0
-587 -586 -581 0
587 -586 581 0
587 586 -581 0
-588 587 582 0
-588 -587 -582 0
588 -587 582 0
588 587 -582 0
-589 588 583 0
-589 -588 -583 0
589 -588 583 0
589 588 -583 0
-590 589 584 0
-590 -589 -584 0
590 -589 584 0
590 589 -584 0
-591 590 585 0
-591 -590 -585 0
591 -590 585 0
591 590 -585 0
-591 0
-592 3 0
-592 30 0
-592 60 0
592 -3 -30 -60 0
-593 7 0
-593 34 0
-593 64 0
593 -7 -34 -64 0
-594 11 0
-594 38 0
-594 68 0
594 -11 -38 -68 0
-595 15 0
-595 42 0
-595 72 0
595 -15 -42 -72 0
-596 19 0
-596 46 0
-596 76 0
596 -19 -46 -76 0
-597 23 0
-597 50 0
-597 80 0
597 -23 -50 -80 0
-598 27 0
-598 54 0
-598 84 0
598 -27 -54 -84 0
-599 592 593 0
-599 -592 -593 0
599 -592 593 0
599 592 -593 0
-600 599 594 0
-600 -599 -594 0
600 -599 594 0
600 599 -594 0
-601 600 595 0
-601 -600 -595 0
601 -600 595 0
601 600 -595 0
-602 601 596 0
-602 -601 -596 0
602 -601 596 0
602 601 -596 0
-603 602 597 0
-603 -602 -597 0
603 -602 597 0
603 602 -597 0
-604 603 598 0
-604 -603 -598 0
604 -603 598 0
604 603 -598 0
604 0
-605 3 0
-605 31 0
-605 57 0
605 -3 -31 -57 0
-606 7 0
-606 35 0
-606 61 0
606 -7 -35 -61 0
-607 11 0
-607 39 0
-607 65 0
607 -11 -39 -65 0
-608 15 0
-608 43 0
-608 69 0
608 -15 -43 -69 0
-609 19 0
-609 47 0
-609 73 0
609 -19 -47 -73 0
-610 23 0
-610 51 0
-610 77 0
610 -23 -51 -77 0
-611 27 0
-611 55 0
-611 81 0
611 -27 -55 -81 0
-612 605 606 0
-612 -605 -606 0
612 -605 606 0
612 605 -606 0
-613 612 607 0
-613 -612 -607 0
613 -612 607 0
613 612 -607 0
-614 613 608 0
-614 -613 -608 0
614 -613 608 0
614 613 -608 0
-615 614 609 0
-615 -614 -609 0
615 -614 609 0
615 614 -609 0
-616 615 610 0
-616 -615 -610 0
616 -615 610 0
616 615 -610 0
-617 616 611 0
-617 -616 -611 0
617 -616 611 0
617 616 -611 0
-617 0
-618 3 0
-618 31 0
-618 58 0
618 -3 -31 -58 0
-619 7 0
-619 35 0
-619 62 0
619 -7 -35 -62 0
-620 11 0
-620 39 0
-620 66 0
620 -11 -39 -66 0
-621 15 0
-621 43 0
-621 70 0
621 -15 -43 -70 0
-622 19 0
-622 47 0
-622 74 0
622 -19 -47 -74 0
-623 23 0
-623 51 0
-623 78 0
623 -23 -51 -78 0
-624 27 0
-624 55 0
-624 82 0
624 -27 -55 -82 0
-625 618 619 0
-625 -618 -619 0
625 -618 619 0
625 618 -619 0
-626 625 620 0
-626 -625 -620 0
626 -625 620 0
626 625 -620 0
-627 626 621 0
-627 -626 -621 0
627 -626 621 0
627 626 -621 0
-628 627 622 0
-628 -627 -622 0
628 -627 622 0
628 627 -622 0
-629 628 623 0
-629 -628 -623 0
629 -628 623 0
629 628 -623 0
-630 629 624 0
-630 -629 -624 0
630 -629 624 0
630 629 -624 0
-630 0
-631 3 0
-631 31 0
-631 59 0
631 -3 -31 -59 0
-632 7 0
-632 35 0
-632 63 0
632 -7 -35 -63 0
-633 11 0
-633 39 0
-633 67 0
633 -11 -39 -67 0
-634 15 0
-634 43 0
-634 71 0
634 -15 -43 -71 0
-635 19 0
-635 47 0
-635 75 0
635 -19 -47 -75 0
-636 23 0
-636 51 0
-636 79 0
636 -23 -51 -79 0
-637 27 0
-637 55 0
-637 83 0
637 -27 -55 -83 0
-638 631 632 0
-638 -631 -632 0
638 -631 632 0
638 631 -632 0
-639 638 633 0
-639 -638 -633 0
639 -638 633 0
639 638 -633 0
-640 639 634 0
-640 -639 -634 0
640 -639 634 0
640 639 -634 0
-641 640 635 0
-641 -640 -635 0
641 -640 635 0
641 640 -635 0
-642 641 636 0
-642 -641 -636 0
642 -641 636 0
642 641 -636 0
-643 642 637 0
-643 -642 -637 0
643 -642 637 0
643 642 -637 0
-643 0
-644 3 0
-644 31 0
-644 60 0
644 -3 -31 -60 0
-645 7 0
-645 35 0
-645 64 0
645 -7 -35 -64 0
-646 11 0
-646 39 0
-646 68 0
646 -11 -39 -68 0
-647 15 0
-647 43 0
-647 72 0
647 -15 -43 -72 0
-648 19 0
-648 47 0
-648 76 0
648 -19 -47 -76 0
-649 23 0
-649 51 0
-649 80 0
649 -23 -51 -80 0
-650 27 0
-650 55 0
-650 84 0
650 -27 -55 -84 0
-651 644 645 0
-651 -644 -645 0
651 -644 645 0
651 644 -645 0
-652 651 646 0
-652 -651 -646 0
652 -651 646 0
652 651 -646 0
-653 652 647 0
-653 -652 -647 0
653 -652 647 0
653 652 -647 0
-654 653 648 0
-654 -653 -648 0
654 -653 648 0
654 653 -648 0
-655 654 649 0
-655 -654 -649 0
655 -654 649 0
655 654 -649 0
-656 655 650 0
-656 -655 -650 0
656 -655 650 0
656 655 -650 0
-656 0
-657 3 0
-657 32 0
-657 57 0
657 -3 -32 -57 0
-658 7 0
-658 36 0
-658 61 0
658 -7 -36 -61 0
-659 11 0
-659 40 0
-659 65 0
659 -11 -40 -65 0
-660 15 0
-660 44 0
-660 69 0
660 -15 -44 -69 0
-661 19 0
-661 48 0
-661 73 0
661 -19 -48 -73 0
-662 23 0
-662 52 0
-662 77 0
662 -23 -52 -77 0
-663 27 0
-663 56 0
-663 81 0
663 -27 -56 -81 0
-664 657 658 0
-664 -657 -658 0
664 -657 658 0
664 657 -658 0
-665 664 659 0
-665 -664 -659 0
665 -664 659 0
665 664 -659 0
-666 665 660 0
-666 -665 -660 0
666 -665 660 0
666 665 -660 0
-667 666 661 0
-667 -666 -661 0
667 -666 661 0
667 666 -661 0
-668 667 662 0
-668 -667 -662 0
668 -667 662 0
668 667 -662 0
-669 668 663 0
-669 -668 -663 0
669 -668 663 0
669 668 -663 0
-669 0
-670 3 0
-670 32 0
-670 58 0
670 -3 -32 -58 0
-671 7 0
-671 36 0
-671 62 0
671 -7 -36 -62 0
-672 11 0
-672 40 0
-672 66 0
672 -11 -40 -66 0
-673 15 0
-673 44 0
-673 70 0
673 -15 -44 -70 0
-674 19 0
-674 48 0
-674 74 0
674 -19 -48 -74 0
-675 23 0
-675 52 0
-675 78 0
675 -23 -52 -78 0
-676 27 0
-676 56 0
-676 82 0
676 -27 -56 -82 0
-677 670 671 0
-677 -670 -671 0
677 -670 671 0
677 670 -671 0
-678 677 672 0
-678 -677 -672 0
678 -677 672 0
678 677 -672 0
-679 678 673 0
-679 -678 -673 0
679 -678 673 0
679 678 -673 0
-680 679 674 0
-680 -679 -674 0
680 -679 674 0
680 679 -674 0
-681 680 675 0
-681 -680 -675 0
681 -680 675 0
681 680 -675 0
-682 681 676 0
-682 -681 -676 0
682 -681 676 0
682 681 -676 0
-682 0
-683 3 0
-683 32 0
-683 59 0
683 -3 -32 -59 0
-684 7 0
-684 36 0
-684 63 0
684 -7 -36 -63 0
-685 11 0
-685 40 0
-685 67 0
685 -11 -40 -67 0
-686 15 0
-686 44 0
-686 71 0
686 -15 -44 -71 0
-687 19 0
-687 48 0
-687 75 0
687 -19 -48 -75 0
-688 23 0
-688 52 0
-688 79 0
688 -23 -52 -79 0
-689 27 0
-689 56 0
-689 83 0
689 -27 -56 -83 0
-690 683 684 0
-690 -683 -684 0
690 -683 684 0
690 683 -684 0
-691 690 685 0
-691 -690 -685 0
691 -690 685 0
691 690 -685 0
-692 691 686 0
-692 -691 -686 0
692 -691 686 0
692 691 -686 0
-693 692 687 0
-693 -692 -687 0
693 -692 687 0
693 692 -687 0
-694 693 688 0
-694 -693 -688 0
694 -693 688 0
694 693 -688 0
-695 694 689 0
-695 -694 -689 0
695 -694 689 0
695 694 -689 0
-695 0
-696 3 0
-696 32 0
-696 60 0
696 -3 -32 -60 0
-697 7 0
-697 36 0
-697 64 0
697 -7 -36 -64 0
-698 11 0
-698 40 0
-698 68 0
698 -11 -40 -68 0
-699 15 0
-699 44 0
-699 72 0
699 -15 -44 -72 0
-700 19 0
-700 48 0
-700 76 0
700 -19 -48 -76 0
-701 23 0
-701 52 0
-701 80 0
701 -23 -52 -80 0
-702 27 0
-702 56 0
-702 84 0
702 -27 -56 -84 0
-703 696 697 0
-703 -696 -697 0
703 -696 697 0
703 696 -697 0
-704 703 698 0
-704 -703 -698 0
704 -703 698 0
704 703 -698 0
-705 704 699 0
-705 -704 -699 0
705 -704 699 0
705 704 -699 0
-706 705 700 0
-706 -705 -700 0
706 -705 700 0
706 705 -700 0
-707 706 701 0
-707 -706 -701 0
707 -706 701 0
707 706 -701 0
-708 707 702 0
-708 -707 -702 0
708 -707 702 0
708 707 -702 0
-708 0
-709 4 0
-709 29 0
-709 57 0
709 -4 -29 -57 0
-710 8 0
-710 33 0
-710 61 0
710 -8 -33 -61 0
-711 12 0
-711 37 0
-711 65 0
711 -12 -37 -65 0
-712 16 0
-712 41 0
-712 69 0
712 -16 -41 -69 0
-713 20 0
-713 45 0
-713 73 0
713 -20 -45 -73 0
-714 24 0
-714 49 0
-714 77 0
714 -24 -49 -77 0
-715 28 0
-715 53 0
-715 81 0
715 -28 -53 -81 0
-716 709 710 0
-716 -709 -710 0
716 -709 710 0
716 709 -710 0
-717 716 711 0
-717 -716 -711 0
717 -716 711 0
717 716 -711 0
-718 717 712 0
-718 -717 -712 0
718 -717 712 0
718 717 -712 0
-719 718 713 0
-719 -718 -713 0
719 -718 713 0
719 718 -713 0
-720 719 714 0
-720 -719 -714 0
720 -719 714 0
720 719 -714 0
-721 720 715 0
-721 -720 -715 0
721 -720 715 0
721 720 -715 0
-721 0
-722 4 0
-722 29 0
-722 58 0
722 -4 -29 -58 0
-723 8 0
-723 33 0
-723 62 0
723 -8 -33 -62 0
-724 12 0
-724 37 0
-724 66 0
724 -12 -37 -66 0
-725 16 0
-725 41 0
-725 70 0
725 -16 -41 -70 0
-726 20 0
-726 45 0
-726 74 0
726 -20 -45 -74 0
-727 24 0
-727 49 0
-727 78 0
727 -24 -49 -78 0
-728 28 0
-728 53 0
-728 82 0
728 -28 -53 -82 0
-729 722 723 0
-729 -722 -723 0
729 -722 723 0
729 722 -723 0
-730 729 724 0
-730 -729 -724 0
730 -729 724 0
730 729 -724 0
-731 730 725 0
-731 -730 -725 0
731 -730 725 0
731 730 -725 0
-732 731 726 0
-732 -731 -726 0
732 -731 726 0
732 731 -726 0
-733 732 727 0
-733 -732 -727 0
733 -732 727 0
733 732 -727 0
-734 733 728 0
-734 -733 -728 0
734 -733 728 0
734 733 -728 0
-734 0
-735 4 0
-735 29 0
-735 59 0
735 -4 -29 -59 0
-736 8 0
-736 33 0
-736 63 0
736 -8 -33 -63 0
-737 12 0
-737 37 0
-737 67 0
737 -12 -37 -67 0
-738 16 0
-738 41 0
-738 71 0
738 -16 -41 -71 0
-739 20 0
-739 45 0
-739 75 0
739 -20 -45 -75 0
-740 24 0
-740 49 0
-740 79 0
740 -24 -49 -79 0
-741 28 0
-741 53 0
-741 83 0
741 -28 -53 -83 0
-742 735 736 0
-742 -735 -736 0
742 -735 736 0
742 735 -736 0
-743 742 737 0
-743 -742 -737 0
743 -742 737 0
743 742 -737 0
-744 743 738 0
-744 -743 -738 0
744 -743 738 0
744 743 -738 0
-745 744 739 0
-745 -744 -739 0
745 -744 739 0
745 744 -739 0
-746 745 740 0
-746 -745 -740 0
746 -745 740 0
746 745 -740 0
-747 746 741 0
-747 -746 -741 0
747 -746 741 0
747 746 -741 0
-747 0
-748 4 0
-748 29 0
-748 60 0
748 -4 -29 -60 0
-749 8 0
-749 33 0
-749 64 0
749 -8 -33 -64 0
-750 12 0
-750 37 0
-750 68 0
750 -12 -37 -68 0
-751 16 0
-751 41 0
-751 72 0
751 -16 -41 -72 0
-752 20 0
-752 45 0
-752 76 0
752 -20 -45 -76 0
-753 24 0
-753 49 0
-753 80 0
753 -24 -49 -80 0
-754 28 0
-754 53 0
-754 84 0
754 -28 -53 -84 0
-755 748 749 0
-755 -748 -749 0
755 -748 749 0
755 748 -749 0
-756 755 750 0
-756 -755 -750 0
756 -755 750 0
756 755 -750 0
-757 756 751 0
-757 -756 -751 0
757 -756 751 0
757 756 -751 0
-758 757 752 0
-758 -757 -752 0
758 -757 752 0
758 757 -752 0
-759 758 753 0
-759 -758 -753 0
759 -758 753 0
759 758 -753 0
-760 759 754 0
-760 -759 -754 0
760 -759 754 0
760 759 -754 0
-760 0
-761 4 0
-761 30 0
-761 57 0
761 -4 -30 -57 0
-762 8 0
-762 34 0
-762 61 0
762 -8 -34 -61 0
-763 12 0
-763 38 0
-763 65 0
763 -12 -38 -65 0
-764 16 0
-764 42 0
-764 69 0
764 -16 -42 -69 0
-765 20 0
-765 46 0
-765 73 0
765 -20 -46 -73 0
-766 24 0
-766 50 0
-766 77 0
766 -24 -50 -77 0
-767 28 0
-767 54 0
-767 81 0
767 -28 -54 -81 0
-768 761 762 0
-768 -761 -762 0
768 -761 762 0
768 761 -762 0
-769 768 763 0
-769 -768 -763 0
769 -768 763 0
769 768 -763 0
-770 769 764 0
-770 -769 -764 0
770 -769 764 0
770 769 -764 0
-771 770 765 0
-771 -770 -765 0
771 -770 765 0
771 770 -765 0
-772 771 766 0
-772 -771 -766 0
772 -771 766 0
772 771 -766 0
-773 772 767 0
-773 -772 -767 0
773 -772 767 0
773 772 -767 0
-773 0
-774 4 0
-774 30 0
-774 58 0
774 -4 -30 -58 0
-775 8 0
-775 34 0
-775 62 0
775 -8 -34 -62 0
-776 12 0
-776 38 0
-776 66 0
776 -12 -38 -66 0
-777 16 0
-777 42 0
-777 70 0
777 -16 -42 -70 0
-778 20 0
-778 46 0
-778 74 0
778 -20 -46 -74 0
-779 24 0
-779 50 0
-779 78 0
779 -24 -50 -78 0
-780 28 0
-780 54 0
-780 82 0
780 -28 -54 -82 0
-781 774 775 0
-781 -774 -775 0
781 -774 775 0
781 774 -775 0
-782 781 776 0
-782 -781 -776 0
782 -781 776 0
782 781 -776 0
-783 782 777 0
-783 -782 -777 0
783 -782 777 0
783 782 -777 0
-784 783 778 0
-784 -783 -778 0
784 -783 778 0
784 783 -778 0
-785 784 779 0
-785 -784 -779 0
785 -784 779 0
785 784 -779 0
-786 785 780 0
-786 -785 -780 0
786 -785 780 0
786 785 -780 0
-786 0
-787 4 0
-787 30 0
-787 59 0
787 -4 -30 -59 0
-788 8 0
-788 34 0
-788 63 0
788 -8 -34 -63 0
-789 12 0
-789 38 0
-789 67 0
789 -12 -38 -67 0
-790 16 0
-790 42 0
-790 71 0
790 -16 -42 -71 0
-791 20 0
-791 46 0
-791 75 0
791 -20 -46 -75 0
-792 24 0
-792 50 0
-792 79 0
792 -24 -50 -79 0
-793 28 0
-793 54 0
-793 83 0
793 -28 -54 -83 0
-794 787 788 0
-794 -787 -788 0
794 -787 788 0
794 787 -788 0
-795 794 789 0
-795 -794 -789 0
795 -794 789 0
795 794 -789 0
-796 795 790 0
-796 -795 -790 0
796 -795 790 0
796 795 -790 0
-797 796 791 0
-797 -796 -791 0
797 -796 791 0
797 796 -791 0
-798 797 792 0
-798 -797 -792 0
798 -797 792 0
798 797 -792 0
-799 798 793 0
-799 -798 -793 0
799 -798 793 0
799 798 -793 0
-799 0
-800 4 0
-800 30 0
-800 60 0
800 -4 -30 -60 0
-801 8 0
-801 34 0
-801 64 0
801 -8 -34 -64 0
-802 12 0
-802 38 0
-802 68 0
802 -12 -38 -68 0
-803 16 0
-803 42 0
-803 72 0
803 -16 -42 -72 0
-804 20 0
-804 46 0
-804 76 0
804 -20 -46 -76 0
-805 24 0
-805 50 0
-805 80 0
805 -24 -50 -80 0
-806 28 0
-806 54 0
-806 84 0
806 -28 -54 -84 0
-807 800 801 0
-807 -800 -801 0
807 -800 801 0
807 800 -801 0
-808 807 802 0
-808 -807 -802 0
808 -807 802 0
808 807 -802 0
-809 808 803 0
-809 -808 -803 0
809 -808 803 0
809 808 -803 0
-810 809 804 0
-810 -809 -804 0
810 -809 804 0
810 809 -804 0
-811 810 805 0
-811 -810 -805 0
811 -810 805 0
811 810 -805 0
-812 811 806 0
-812 -811 -806 0
812 -811 806 0
812 811 -806 0
-812 0
-813 4 0
-813 31 0
-813 57 0
813 -4 -31 -57 0
-814 8 0
-814 35 0
-814 61 0
814 -8 -35 -61 0
-815 12 0
-815 39 0
-815 65 0
815 -12 -39 -65 0
-816 16 0
-816 43 0
-816 69 0
816 -16 -43 -69 0
-817 20 0
-817 47 0
-817 73 0
817 -20 -47 -73 0
-818 24 0
-818 51 0
-818 77 0
818 -24 -51 -77 0
-819 28 0
-819 55 0
-819 81 0
819 -28 -55 -81 0
-820 813 814 0
-820 -813 -814 0
820 -813 814 0
820 813 -814 0
-821 820 815 0
-821 -820 -815 0
821 -820 815 0
821 820 -815 0
-822 821 816 0
-822 -821 -816 0
822 -821 816 0
822 821 -816 0
-823 822 817 0
-823 -822 -817 0
823 -822 817 0
823 822 -817 0
-824 823 818 0
-824 -823 -818 0
824 -823 818 0
824 823 -818 0
-825 824 819 0
-825 -824 -819 0
825 -824 819 0
825 824 -819 0
-825 0
-826 4 0
-826 31 0
-826 58 0
826 -4 -31 -58 0
-827 8 0
-827 35 0
-827 62 0
827 -8 -35 -62 0
-828 12 0
-828 39 0
-828 66 0
828 -12 -39 -66 0
-829 16 0
-829 43 0
-829 70 0
829 -16 -43 -70 0
-830 20 0
-830 47 0
-830 74 0
830 -20 -47 -74 0
-831 24 0
-831 51 0
-831 78 0
831 -24 -51 -78 0
-832 28 0
-832 55 0
-832 82 0
832 -28 -55 -82 0
-833 826 827 0
-833 -826 -827 0
833 -826 827 0
833 826 -827 0
-834 833 828 0
-834 -833 -828 0
834 -833 828 0
834 833 -828 0
-835 834 829 0
-835 -834 -829 0
835 -834 829 0
835 834 -829 0
-836 835 830 0
-836 -835 -830 0
836 -835 830 0
836 835 -830 0
-837 836 831 0
-837 -836 -831 0
837 -836 831 0
837 836 -831 0
-838 837 832 0
-838 -837 -832 0
838 -837 832 0
838 837 -832 0
-838 0
-839 4 0
-839 31 0
-839 59 0
839 -4 -31 -59 0
-840 8 0
-840 35 0
-840 63 0
840 -8 -35 -63 0
-841 12 0
-841 39 0
-841 67 0
841 -12 -39 -67 0
-842 16 0
-842 43 0
-842 71 0
842 -16 -43 -71 0
-843 20 0
-843 47 0
-843 75 0
843 -20 -47 -75 0
-844 24 0
-844 51 0
-844 79 0
844 -24 -51 -79 0
-845 28 0
-845 55 0
-845 83 0
845 -28 -55 -83 0
-846 839 840 0
-846 -839 -840 0
846 -839 840 0
846 839 -840 0
-847 846 841 0
-847 -846 -841 0
847 -846 841 0
847 846 -841 0
-848 847 842 0
-848 -847 -842 0
848 -847 842 0
848 847 -842 0
-849 848 843 0
-849 -848 -843 0
849 -848 843 0
849 848 -843 0
-850 849 844 0
-850 -849 -844 0
850 -849 844 0
850 849 -844 0
-851 850 845 0
-851 -850 -845 0
851 -850 845 0
851 850 -845 0
851 0
-852 4 0
-852 31 0
-852 60 0
852 -4 -31 -60 0
-853 8 0
-853 35 0
-853 64 0
853 -8 -35 -64 0
-854 12 0
-854 39 0
-854 68 0
854 -12 -39 -68 0
-855 16 0
-855 43 0
-855 72 0
855 -16 -43 -72 0
-856 20 0
-856 47 0
-856 76 0
856 -20 -47 -76 0
-857 24 0
-857 51 0
-857 80 0
857 -24 -51 -80 0
-858 28 0
-858 55 0
-858 84 0
858 -28 -55 -84 0
-859 852 853 0
-859 -852 -853 0
859 -852 853 0
859 852 -853 0
-860 859 854 0
-860 -859 -854 0
860 -859 854 0
860 859 -854 0
-861 860 855 0
-861 -860 -855 0
861 -860 855 0
861 860 -855 0
-862 861 856 0
-862 -861 -856 0
862 -861 856 0
862 861 -856 0
-863 862 857 0
-863 -862 -857 0
863 -862 857 0
863 862 -857 0
-864 863 858 0
-864 -863 -858 0
864 -863 858 0
864 863 -858 0
-864 0
-865 4 0
-865 32 0
-865 57 0
865 -4 -32 -57 0
-866 8 0
-866 36 0
-866 61 0
866 -8 -36 -61 0
-867 12 0
-867 40 0
-867 65 0
867 -12 -40 -65 0
-868 16 0
-868 44 0
-868 69 0
868 -16 -44 -69 0
-869 20 0
-869 48 0
-869 73 0
869 -20 -48 -73 0
-870 24 0
-870 52 0
-870 77 0
870 -24 -52 -77 0
-871 28 0
-871 56 0
-871 81 0
871 -28 -56 -81 0
-872 865 866 0
-872 -865 -866 0
872 -865 866 0
872 865 -866 0
-873 872 867 0
-873 -872 -867 0
873 -872 867 0
873 872 -867 0
-874 873 868 0
-874 -873 -868 0
874 -873 868 0
874 873 -868 0
-875 874 869 0
-875 -874 -869 0
875 -874 869 0
875 874 -869 0
-876 875 870 0
-876 -875 -870 0
876 -875 870 0
876 875 -870 0
-877 876 871 0
-877 -876 -871 0
877 -876 871 0
877 876 -871 0
-877 0
-878 4 0
-878 32 0
-878 58 0
878 -4 -32 -58 0
-879 8 0
-879 36 0
-879 62 0
879 -8 -36 -62 0
-880 12 0
-880 40 0
-880 66 0
880 -12 -40 -66 0
-881 16 0
-881 44 0
-881 70 0
881 -16 -44 -70 0
-882 20 0
-882 48 0
-882 74 0
882 -20 -48 -74 0
-883 24 0
-883 52 0
-883 78 0
883 -24 -52 -78 0
-884 28 0
-884 56 0
-884 82 0
884 -28 -56 -82 0
-885 878 879 0
-885 -878 -879 0
885 -878 879 0
885 878 -879 0
-886 885 880 0
-886 -885 -880 0
886 -885 880 0
886 885 -880 0
-887 886 881 0
-887 -886 -881 0
887 -886 881 0
887 886 -881 0
-888 887 882 0
-888 -887 -882 0
888 -887 882 0
888 887 -882 0
-889 888 883 0
-889 -888 -883 0
889 -888 883 0
889 888 -883 0
-890 889 884 0
-890 -889 -884 0
890 -889 884 0
890 889 -884 0
-890 0
-891 4 0
-891 32 0
-891 59 0
891 -4 -32 -59 0
-892 8 0
-892 36 0
-892 63 0
892 -8 -36 -63 0
-893 12 0
-893 40 0
-893 67 0
893 -12 -40 -67 0
-894 16 0
-894 44 0
-894 71 0
894 -16 -44 -71 0
-895 20 0
-895 48 0
-895 75 0
895 -20 -48 -75 0
-896 24 0
-896 52 0
-896 79 0
896 -24 -52 -79 0
-897 28 0
-897 56 0
-897 83 0
897 -28 -56 -83 0
-898 891 892 0
-898 -891 -892 0
898 -891 892 0
898 891 -892 0
-899 898 893 0
-899 -898 -893 0
899 -898 893 0
899 898 -893 0
-900 899 894 0
-900 -899 -894 0
900 -899 894 0
900 899 -894 0
-901 900 895 0
-901 -900 -895 0
901 -900 895 0
901 900 -895 0
-902 901 896 0
-902 -901 -896 0
902 -901 896 0
902 901 -896 0
-903 902 897 0
-903 -902 -897 0
903 -902 897 0
903 902 -897 0
-903 0
-904 4 0
-904 32 0
-904 60 0
904 -4 -32 -60 0
-905 8 0
-905 36 0
-905 64 0
905 -8 -36 -64 0
-906 12 0
-906 40 0
-906 68 0
906 -12 -40 -68 0
-907 16 0
-907 44 0
-907 72 0
907 -16 -44 -72 0
-908 20 0
-908 48 0
-908 76 0
908 -20 -48 -76 0
-909 24 0
-909 52 0
-909 80 0
909 -24 -52 -80 0
-910 28 0
-910 56 0
-910 84 0
910 -28 -56 -84 0
-911 904 905 0
-911 -904 -905 0
911 -904 905 0
911 904 -905 0
-912 911 906 0
-912 -911 -906 0
912 -911 906 0
912 911 -906 0
-913 912 907 0
-913 -912 -907 0
913 -912 907 0
913 912 -907 0
-914 913 908 0
-914 -913 -908 0
914 -913 908 0
914 913 -908 0
-915 914 909 0
-915 -914 -909 0
915 -914 909 0
915 914 -909 0
-916 915 910 0
-916 -915 -910 0
916 -915 910 0
916 915 -910 0
916 0
