p cnf 496 1856
-49 1 0
-49 17 0
-49 33 0
49 -1 -17 -33 0
-50 5 0
-50 21 0
-50 37 0
50 -5 -21 -37 0
-51 9 0
-51 25 0
-51 41 0
51 -9 -25 -41 0
-52 13 0
-52 29 0
-52 45 0
52 -13 -29 -45 0
-53 49 50 0
-53 -49 -50 0
53 -49 50 0
53 49 -50 0
-54 53 51 0
-54 -53 -51 0
54 -53 51 0
54 53 -51 0
-55 54 52 0
-55 -54 -52 0
55 -54 52 0
55 54 -52 0
55 0
-56 1 0
-56 17 0
-56 34 0
56 -1 -17 -34 0
-57 5 0
-57 21 0
-57 38 0
57 -5 -21 -38 0
-58 9 0
-58 25 0
-58 42 0
58 -9 -25 -42 0
-59 13 0
-59 29 0
-59 46 0
59 -13 -29 -46 0
-60 56 57 0
-60 -56 -57 0
60 -56 57 0
60 56 -57 0
-61 60 58 0
-61 -60 -58 0
61 -60 58 0
61 60 -58 0
-62 61 59 0
-62 -61 -59 0
62 -61 59 0
62 61 -59 0
-62 0
-63 1 0
-63 17 0
-63 35 0
63 -1 -17 -35 0
-64 5 0
-64 21 0
-64 39 0
64 -5 -21 -39 0
-65 9 0
-65 25 0
-65 43 0
65 -9 -25 -43 0
-66 13 0
-66 29 0
-66 47 0
66 -13 -29 -47 0
-67 63 64 0
-67 -63 -64 0
67 -63 64 0
67 63 -64 0
-68 67 65 0
-68 -67 -65 0
68 -67 65 0
68 67 -65 0
-69 68 66 0
-69 -68 -66 0
69 -68 66 0
69 68 -66 0
-69 0
-70 1 0
-70 17 0
-70 36 0
70 -1 -17 -36 0
-71 5 0
-71 21 0
-71 40 0
71 -5 -21 -40 0
-72 9 0
-72 25 0
-72 44 0
72 -9 -25 -44 0
-73 13 0
-73 29 0
-73 48 0
73 -13 -29 -48 0
-74 70 71 0
-74 -70 -71 0
74 -70 71 0
74 70 -71 0
-75 74 72 0
-75 -74 -72 0
75 -74 72 0
75 74 -72 0
-76 75 73 0
-76 -75 -73 0
76 -75 73 0
76 75 -73 0
-76 0
-77 1 0
-77 18 0
-77 33 0
77 -1 -18 -33 0
-78 5 0
-78 22 0
-78 37 0
78 -5 -22 -37 0
-79 9 0
-79 26 0
-79 41 0
79 -9 -26 -41 0
-80 13 0
-80 30 0
-80 45 0
80 -13 -30 -45 0
-81 77 78 0
-81 -77 -78 0
81 -77 78 0
81 77 -78 0
-82 81 79 0
-82 -81 -79 0
82 -81 79 0
82 81 -79 0
-83 82 80 0
-83 -82 -80 0
83 -82 80 0
83 82 -80 0
-83 0
-84 1 0
-84 18 0
-84 34 0
84 -1 -18 -34 0
-85 5 0
-85 22 0
-85 38 0
85 -5 -22 -38 0
-86 9 0
-86 26 0
-86 42 0
86 -9 -26 -42 0
-87 13 0
-87 30 0
-87 46 0
87 -13 -30 -46 0
-88 84 85 0
-88 -84 -85 0
88 -84 85 0
88 84 -85 0
-89 88 86 0
-89 -88 -86 0
89 -88 86 0
89 88 -86 0
-90 89 87 0
-90 -89 -87 0
90 -89 87 0
90 89 -87 0
90 0
-91 1 0
-91 18 0
-91 35 0
91 -1 -18 -35 0
-92 5 0
-92 22 0
-92 39 0
92 -5 -22 -39 0
-93 9 0
-93 26 0
-93 43 0
93 -9 -26 -43 0
-94 13 0
-94 30 0
-94 47 0
94 -13 -30 -47 0
-95 91 92 0
-95 -91 -92 0
95 -91 92 0
95 91 -92 0
-96 95 93 0
-96 -95 -93 0
96 -95 93 0
96 95 -93 0
-97 96 94 0
-97 -96 -94 0
97 -96 94 0
97 96 -94 0
-97 0
-98 1 0
-98 18 0
-98 36 0
98 -1 -18 -36 0
-99 5 0
-99 22 0
-99 40 0
99 -5 -22 -40 0
-100 9 0
-100 26 0
-100 44 0
100 -9 -26 -44 0
-101 13 0
-101 30 0
-101 48 0
101 -13 -30 -48 0
-102 98 99 0
-102 -98 -99 0
102 -98 99 0
102 98 -99 0
-103 102 100 0
-103 -102 -100 0
103 -102 100 0
103 102 -100 0
-104 103 101 0
-104 -103 -101 0
104 -103 101 0
104 103 -101 0
-104 0
-105 1 0
-105 19 0
-105 33 0
105 -1 -19 -33 0
-106 5 0
-106 23 0
-106 37 0
106 -5 -23 -37 0
-107 9 0
-107 27 0
-107 41 0
107 -9 -27 -41 0
-108 13 0
-108 31 0
-108 45 0
108 -13 -31 -45 0
-109 105 106 0
-109 -105 -106 0
109 -105 106 0
109 105 -106 0
-110 109 107 0
-110 -109 -107 0
110 -109 107 0
110 109 -107 0
-111 110 108 0
-111 -110 -108 0
111 -110 108 0
111 110 -108 0
-111 0
-112 1 0
-112 19 0
-112 34 0
112 -1 -19 -34 0
-113 5 0
-113 23 0
-113 38 0
113 -5 -23 -38 0
-114 9 0
-114 27 0
-114 42 0
114 -9 -27 -42 0
-115 13 0
-115 31 0
-115 46 0
115 -13 -31 -46 0
-116 112 113 0
-116 -112 -113 0
116 -112 113 0
116 112 -113 0
-117 116 114 0
-117 -116 -114 0
117 -116 114 0
117 116 -114 0
-118 117 115 0
-118 -117 -115 0
118 -117 115 0
118 117 -115 0
-118 0
-119 1 0
-119 19 0
-119 35 0
119 -1 -19 -35 0
-120 5 0
-120 23 0
-120 39 0
120 -5 -23 -39 0
-121 9 0
-121 27 0
-121 43 0
121 -9 -27 -43 0
-122 13 0
-122 31 0
-122 47 0
122 -13 -31 -47 0
-123 119 120 0
-123 -119 -120 0
123 -119 120 0
123 119 -120 0
-124 123 121 0
-124 -123 -121 0
124 -123 121 0
124 123 -121 0
-125 124 122 0
-125 -124 -122 0
125 -124 122 0
125 124 -122 0
-125 0
-126 1 0
-126 19 0
-126 36 0
126 -1 -19 -36 0
-127 5 0
-127 23 0
-127 40 0
127 -5 -23 -40 0
-128 9 0
-128 27 0
-128 44 0
128 -9 -27 -44 0
-129 13 0
-129 31 0
-129 48 0
129 -13 -31 -48 0
-130 126 127 0
-130 -126 -127 0
130 -126 127 0
130 126 -127 0
-131 130 128 0
-131 -130 -128 0
131 -130 128 0
131 130 -128 0
-132 131 129 0
-132 -131 -129 0
132 -131 129 0
132 131 -129 0
-132 0
-133 1 0
-133 20 0
-133 33 0
133 -1 -20 -33 0
-134 5 0
-134 24 0
-134 37 0
134 -5 -24 -37 0
-135 9 0
-135 28 0
-135 41 0
135 -9 -28 -41 0
-136 13 0
-136 32 0
-136 45 0
136 -13 -32 -45 0
-137 133 134 0
-137 -133 -134 0
137 -133 134 0
137 133 -134 0
-138 137 135 0
-138 -137 -135 0
138 -137 135 0
138 137 -135 0
-139 138 136 0
-139 -138 -136 0
139 -138 136 0
139 138 -136 0
-139 0
-140 1 0
-140 20 0
-140 34 0
140 -1 -20 -34 0
-141 5 0
-141 24 0
-141 38 0
141 -5 -24 -38 0
-142 9 0
-142 28 0
-142 42 0
142 -9 -28 -42 0
-143 13 0
-143 32 0
-143 46 0
143 -13 -32 -46 0
-144 140 141 0
-144 -140 -141 0
144 -140 141 0
144 140 -141 0
-145 144 142 0
-145 -144 -142 0
145 -144 142 0
145 144 -142 0
-146 145 143 0
-146 -145 -143 0
146 -145 143 0
146 145 -143 0
-146 0
-147 1 0
-147 20 0
-147 35 0
147 -1 -20 -35 0
-148 5 0
-148 24 0
-148 39 0
148 -5 -24 -39 0
-149 9 0
-149 28 0
-149 43 0
149 -9 -28 -43 0
-150 13 0
-150 32 0
-150 47 0
150 -13 -32 -47 0
-151 147 148 0
-151 -147 -148 0
151 -147 148 0
151 147 -148 0
-152 151 149 0
-152 -151 -149 0
152 -151 149 0
152 151 -149 0
-153 152 150 0
-153 -152 -150 0
153 -152 150 0
153 152 -150 0
-153 0
-154 1 0
-154 20 0
-154 36 0
154 -1 -20 -36 0
-155 5 0
-155 24 0
-155 40 0
155 -5 -24 -40 0
-156 9 0
-156 28 0
-156 44 0
156 -9 -28 -44 0
-157 13 0
-157 32 0
-157 48 0
157 -13 -32 -48 0
-158 154 155 0
-158 -154 -155 0
158 -154 155 0
158 154 -155 0
-159 158 156 0
-159 -158 -156 0
159 -158 156 0
159 158 -156 0
-160 159 157 0
-160 -159 -157 0
160 -159 157 0
160 159 -157 0
-160 0
-161 2 0
-161 17 0
-161 33 0
161 -2 -17 -33 0
-162 6 0
-162 21 0
-162 37 0
162 -6 -21 -37 0
-163 10 0
-163 25 0
-163 41 0
163 -10 -25 -41 0
-164 14 0
-164 29 0
-164 45 0
164 -14 -29 -45 0
-165 161 162 0
-165 -161 -162 0
165 -161 162 0
165 161 -162 0
-166 165 163 0
-166 -165 -163 0
166 -165 163 0
166 165 -163 0
-167 166 164 0
-167 -166 -164 0
167 -166 164 0
167 166 -164 0
-167 0
-168 2 0
-168 17 0
-168 34 0
168 -2 -17 -34 0
-169 6 0
-169 21 0
-169 38 0
169 -6 -21 -38 0
-170 10 0
-170 25 0
-170 42 0
170 -10 -25 -42 0
-171 14 0
-171 29 0
-171 46 0
171 -14 -29 -46 0
-172 168 169 0
-172 -168 -169 0
172 -168 169 0
172 168 -169 0
-173 172 170 0
-173 -172 -170 0
173 -172 170 0
173 172 -170 0
-174 173 171 0
-174 -173 -171 0
174 -173 171 0
174 173 -171 0
-174 0
-175 2 0
-175 17 0
-175 35 0
175 -2 -17 -35 0
-176 6 0
-176 21 0
-176 39 0
176 -6 -21 -39 0
-177 10 0
-177 25 0
-177 43 0
177 -10 -25 -43 0
-178 14 0
-178 29 0
-178 47 0
178 -14 -29 -47 0
-179 175 176 0
-179 -175 -176 0
179 -175 176 0
179 175 -176 0
-180 179 177 0
-180 -179 -177 0
180 -179 177 0
180 179 -177 0
-181 180 178 0
-181 -180 -178 0
181 -180 178 0
181 180 -178 0
-181 0
-182 2 0
-182 17 0
-182 36 0
182 -2 -17 -36 0
-183 6 0
-183 21 0
-183 40 0
183 -6 -21 -40 0
-184 10 0
-184 25 0
-184 44 0
184 -10 -25 -44 0
-185 14 0
-185 29 0
-185 48 0
185 -14 -29 -48 0
-186 182 183 0
-186 -182 -183 0
186 -182 183 0
186 182 -183 0
-187 186 184 0
-187 -186 -184 0
187 -186 184 0
187 186 -184 0
-188 187 185 0
-188 -187 -185 0
188 -187 185 0
188 187 -185 0
-188 0
-189 2 0
-189 18 0
-189 33 0
189 -2 -18 -33 0
-190 6 0
-190 22 0
-190 37 0
190 -6 -22 -37 0
-191 10 0
-191 26 0
-191 41 0
191 -10 -26 -41 0
-192 14 0
-192 30 0
-192 45 0
192 -14 -30 -45 0
-193 189 190 0
-193 -189 -190 0
193 -189 190 0
193 189 -190 0
-194 193 191 0
-194 -193 -191 0
194 -193 191 0
194 193 -191 0
-195 194 192 0
-195 -194 -192 0
195 -194 192 0
195 194 -192 0
-195 0
-196 2 0
-196 18 0
-196 34 0
196 -2 -18 -34 0
-197 6 0
-197 22 0
-197 38 0
197 -6 -22 -38 0
-198 10 0
-198 26 0
-198 42 0
198 -10 -26 -42 0
-199 14 0
-199 30 0
-199 46 0
199 -14 -30 -46 0
-200 196 197 0
-200 -196 -197 0
200 -196 197 0
200 196 -197 0
-201 200 198 0
-201 -200 -198 0
201 -200 198 0
201 200 -198 0
-202 201 199 0
-202 -201 -199 0
202 -201 199 0
202 201 -199 0
-202 0
-203 2 0
-203 18 0
-203 35 0
203 -2 -18 -35 0
-204 6 0
-204 22 0
-204 39 0
204 -6 -22 -39 0
-205 10 0
-205 26 0
-205 43 0
205 -10 -26 -43 0
-206 14 0
-206 30 0
-206 47 0
206 -14 -30 -47 0
-207 203 204 0
-207 -203 -204 0
207 -203 204 0
207 203 -204 0
-208 207 205 0
-208 -207 -205 0
208 -207 205 0
208 207 -205 0
-209 208 206 0
-209 -208 -206 0
209 -208 206 0
209 208 -206 0
-209 0
-210 2 0
-210 18 0
-210 36 0
210 -2 -18 -36 0
-211 6 0
-211 22 0
-211 40 0
211 -6 -22 -40 0
-212 10 0
-212 26 0
-212 44 0
212 -10 -26 -44 0
-213 14 0
-213 30 0
-213 48 0
213 -14 -30 -48 0
-214 210 211 0
-214 -210 -211 0
214 -210 211 0
214 210 -211 0
-215 214 212 0
-215 -214 -212 0
215 -214 212 0
215 214 -212 0
-216 215 213 0
-216 -215 -213 0
216 -215 213 0
216 215 -213 0
-216 0
-217 2 0
-217 19 0
-217 33 0
217 -2 -19 -33 0
-218 6 0
-218 23 0
-218 37 0
218 -6 -23 -37 0
-219 10 0
-219 27 0
-219 41 0
219 -10 -27 -41 0
-220 14 0
-220 31 0
-220 45 0
220 -14 -31 -45 0
-221 217 218 0
-221 -217 -218 0
221 -217 218 0
221 217 -218 0
-222 221 219 0
-222 -221 -219 0
222 -221 219 0
222 221 -219 0
-223 222 220 0
-223 -222 -220 0
223 -222 220 0
223 222 -220 0
223 0
-224 2 0
-224 19 0
-224 34 0
224 -2 -19 -34 0
-225 6 0
-225 23 0
-225 38 0
225 -6 -23 -38 0
-226 10 0
-226 27 0
-226 42 0
226 -10 -27 -42 0
-227 14 0
-227 31 0
-227 46 0
227 -14 -31 -46 0
-228 224 225 0
-228 -224 -225 0
228 -224 225 0
228 224 -225 0
-229 228 226 0
-229 -228 -226 0
229 -228 226 0
229 228 -226 0
-230 229 227 0
-230 -229 -227 0
230 -229 227 0
230 229 -227 0
-230 0
-231 2 0
-231 19 0
-231 35 0
231 -2 -19 -35 0
-232 6 0
-232 23 0
-232 39 0
232 -6 -23 -39 0
-233 10 0
-233 27 0
-233 43 0
233 -10 -27 -43 0
-234 14 0
-234 31 0
-234 47 0
234 -14 -31 -47 0
-235 231 232 0
-235 -231 -232 0
235 -231 232 0
235 231 -232 0
-236 235 233 0
-236 -235 -233 0
236 -235 233 0
236 235 -233 0
-237 236 234 0
-237 -236 -234 0
237 -236 234 0
237 236 -234 0
-237 0
-238 2 0
-238 19 0
-238 36 0
238 -2 -19 -36 0
-239 6 0
-239 23 0
-239 40 0
239 -6 -23 -40 0
-240 10 0
-240 27 0
-240 44 0
240 -10 -27 -44 0
-241 14 0
-241 31 0
-241 48 0
241 -14 -31 -48 0
-242 238 239 0
-242 -238 -239 0
242 -238 239 0
242 238 -239 0
-243 242 240 0
-243 -242 -240 0
243 -242 240 0
243 242 -240 0
-244 243 241 0
-244 -243 -241 0
244 -243 241 0
244 243 -241 0
-244 0
-245 2 0
-245 20 0
-245 33 0
245 -2 -20 -33 0
-246 6 0
-246 24 0
-246 37 0
246 -6 -24 -37 0
-247 10 0
-247 28 0
-247 41 0
247 -10 -28 -41 0
-248 14 0
-248 32 0
-248 45 0
248 -14 -32 -45 0
-249 245 246 0
-249 -245 -246 0
249 -245 246 0
249 245 -246 0
-250 249 247 0
-250 -249 -247 0
250 -249 247 0
250 249 -247 0
-251 250 248 0
-251 -250 -248 0
251 -250 248 0
251 250 -248 0
-251 0
-252 2 0
-252 20 0
-252 34 0
252 -2 -20 -34 0
-253 6 0
-253 24 0
-253 38 0
253 -6 -24 -38 0
-254 10 0
-254 28 0
-254 42 0
254 -10 -28 -42 0
-255 14 0
-255 32 0
-255 46 0
255 -14 -32 -46 0
-256 252 253 0
-256 -252 -253 0
256 -252 253 0
256 252 -253 0
-257 256 254 0
-257 -256 -254 0
257 -256 254 0
257 256 -254 0
-258 257 255 0
-258 -257 -255 0
258 -257 255 0
258 257 -255 0
258 0
-259 2 0
-259 20 0
-259 35 0
259 -2 -20 -35 0
-260 6 0
-260 24 0
-260 39 0
260 -6 -24 -39 0
-261 10 0
-261 28 0
-261 43 0
261 -10 -28 -43 0
-262 14 0
-262 32 0
-262 47 0
262 -14 -32 -47 0
-263 259 260 0
-263 -259 -260 0
263 -259 260 0
263 259 -260 0
-264 263 261 0
-264 -263 -261 0
264 -263 261 0
264 263 -261 0
-265 264 262 0
-265 -264 -262 0
265 -264 262 0
265 264 -262 0
-265 0
-266 2 0
-266 20 0
-266 36 0
266 -2 -20 -36 0
-267 6 0
-267 24 0
-267 40 0
267 -6 -24 -40 0
-268 10 0
-268 28 0
-268 44 0
268 -10 -28 -44 0
-269 14 0
-269 32 0
-269 48 0
269 -14 -32 -48 0
-270 266 267 0
-270 -266 -267 0
270 -266 267 0
270 266 -267 0
-271 270 268 0
-271 -270 -268 0
271 -270 268 0
271 270 -268 0
-272 271 269 0
-272 -271 -269 0
272 -271 269 0
272 271 -269 0
-272 0
-273 3 0
-273 17 0
-273 33 0
273 -3 -17 -33 0
-274 7 0
-274 21 0
-274 37 0
274 -7 -21 -37 0
-275 11 0
-275 25 0
-275 41 0
275 -11 -25 -41 0
-276 15 0
-276 29 0
-276 45 0
276 -15 -29 -45 0
-277 273 274 0
-277 -273 -274 0
277 -273 274 0
277 273 -274 0
-278 277 275 0
-278 -277 -275 0
278 -277 275 0
278 277 -275 0
-279 278 276 0
-279 -278 -276 0
279 -278 276 0
279 278 -276 0
-279 0
-280 3 0
-280 17 0
-280 34 0
280 -3 -17 -34 0
-281 7 0
-281 21 0
-281 38 0
281 -7 -21 -38 0
-282 11 0
-282 25 0
-282 42 0
282 -11 -25 -42 0
-283 15 0
-283 29 0
-283 46 0
283 -15 -29 -46 0
-284 280 281 0
-284 -280 -281 0
284 -280 281 0
284 280 -281 0
-285 284 282 0
-285 -284 -282 0
285 -284 282 0
285 284 -282 0
-286 285 283 0
-286 -285 -283 0
286 -285 283 0
286 285 -283 0
-286 0
-287 3 0
-287 17 0
-287 35 0
287 -3 -17 -35 0
-288 7 0
-288 21 0
-288 39 0
288 -7 -21 -39 0
-289 11 0
-289 25 0
-289 43 0
289 -11 -25 -43 0
-290 15 0
-290 29 0
-290 47 0
290 -15 -29 -47 0
-291 287 288 0
-291 -287 -288 0
291 -287 288 0
291 287 -288 0
-292 291 289 0
-292 -291 -289 0
292 -291 289 0
292 291 -289 0
-293 292 290 0
-293 -292 -290 0
293 -292 290 0
293 292 -290 0
293 0
-294 3 0
-294 17 0
-294 36 0
294 -3 -17 -36 0
-295 7 0
-295 21 0
-295 40 0
295 -7 -21 -40 0
-296 11 0
-296 25 0
-296 44 0
296 -11 -25 -44 0
-297 15 0
-297 29 0
-297 48 0
297 -15 -29 -48 0
-298 294 295 0
-298 -294 -295 0
298 -294 295 0
298 294 -295 0
-299 298 296 0
-299 -298 -296 0
299 -298 296 0
299 298 -296 0
-300 299 297 0
-300 -299 -297 0
300 -299 297 0
300 299 -297 0
-300 0
-301 3 0
-301 18 0
-301 33 0
301 -3 -18 -33 0
-302 7 0
-302 22 0
-302 37 0
302 -7 -22 -37 0
-303 11 0
-303 26 0
-303 41 0
303 -11 -26 -41 0
-304 15 0
-304 30 0
-304 45 0
304 -15 -30 -45 0
-305 301 302 0
-305 -301 -302 0
305 -301 302 0
305 301 -302 0
-306 305 303 0
-306 -305 -303 0
306 -305 303 0
306 305 -303 0
-307 306 304 0
-307 -306 -304 0
307 -306 304 0
307 306 -304 0
-307 0
-308 3 0
-308 18 0
-308 34 0
308 -3 -18 -34 0
-309 7 0
-309 22 0
-309 38 0
309 -7 -22 -38 0
-310 11 0
-310 26 0
-310 42 0
310 -11 -26 -42 0
-311 15 0
-311 30 0
-311 46 0
311 -15 -30 -46 0
-312 308 309 0
-312 -308 -309 0
312 -308 309 0
312 308 -309 0
-313 312 310 0
-313 -312 -310 0
313 -312 310 0
313 312 -310 0
-314 313 311 0
-314 -313 -311 0
314 -313 311 0
314 313 -311 0
-314 0
-315 3 0
-315 18 0
-315 35 0
315 -3 -18 -35 0
-316 7 0
-316 22 0
-316 39 0
316 -7 -22 -39 0
-317 11 0
-317 26 0
-317 43 0
317 -11 -26 -43 0
-318 15 0
-318 30 0
-318 47 0
318 -15 -30 -47 0
-319 315 316 0
-319 -315 -316 0
319 -315 316 0
319 315 -316 0
-320 319 317 0
-320 -319 -317 0
320 -319 317 0
320 319 -317 0
-321 320 318 0
-321 -320 -318 0
321 -320 318 0
321 320 -318 0
-321 0
-322 3 0
-322 18 0
-322 36 0
322 -3 -18 -36 0
-323 7 0
-323 22 0
-323 40 0
323 -7 -22 -40 0
-324 11 0
-324 26 0
-324 44 0
324 -11 -26 -44 0
-325 15 0
-325 30 0
-325 48 0
325 -15 -30 -48 0
-326 322 323 0
-326 -322 -323 0
326 -322 323 0
326 322 -323 0
-327 326 324 0
-327 -326 -324 0
327 -326 324 0
327 326 -324 0
-328 327 325 0
-328 -327 -325 0
328 -327 325 0
328 327 -325 0
328 0
-329 3 0
-329 19 0
-329 33 0
329 -3 -19 -33 0
-330 7 0
-330 23 0
-330 37 0
330 -7 -23 -37 0
-331 11 0
-331 27 0
-331 41 0
331 -11 -27 -41 0
-332 15 0
-332 31 0
-332 45 0
332 -15 -31 -45 0
-333 329 330 0
-333 -329 -330 0
333 -329 330 0
333 329 -330 0
-334 333 331 0
-334 -333 -331 0
334 -333 331 0
334 333 -331 0
-335 334 332 0
-335 -334 -332 0
335 -334 332 0
335 334 -332 0
-335 0
-336 3 0
-336 19 0
-336 34 0
336 -3 -19 -34 0
-337 7 0
-337 23 0
-337 38 0
337 -7 -23 -38 0
-338 11 0
-338 27 0
-338 42 0
338 -11 -27 -42 0
-339 15 0
-339 31 0
-339 46 0
339 -15 -31 -46 0
-340 336 337 0
-340 -336 -337 0
340 -336 337 0
340 336 -337 0
-341 340 338 0
-341 -340 -338 0
341 -340 338 0
341 340 -338 0
-342 341 339 0
-342 -341 -339 0
342 -341 339 0
342 341 -339 0
-342 0
-343 3 0
-343 19 0
-343 35 0
343 -3 -19 -35 0
-344 7 0
-344 23 0
-344 39 0
344 -7 -23 -39 0
-345 11 0
-345 27 0
-345 43 0
345 -11 -27 -43 0
-346 15 0
-346 31 0
-346 47 0
346 -15 -31 -47 0
-347 343 344 0
-347 -343 -344 0
347 -343 344 0
347 343 -344 0
-348 347 345 0
-348 -347 -345 0
348 -347 345 0
348 347 -345 0
-349 348 346 0
-349 -348 -346 0
349 -348 346 0
349 348 -346 0
-349 0
-350 3 0
-350 19 0
-350 36 0
350 -3 -19 -36 0
-351 7 0
-351 23 0
-351 40 0
351 -7 -23 -40 0
-352 11 0
-352 27 0
-352 44 0
352 -11 -27 -44 0
-353 15 0
-353 31 0
-353 48 0
353 -15 -31 -48 0
-354 350 351 0
-354 -350 -351 0
354 -350 351 0
354 350 -351 0
-355 354 352 0
-355 -354 -352 0
355 -354 352 0
355 354 -352 0
-356 355 353 0
-356 -355 -353 0
356 -355 353 0
356 355 -353 0
-356 0
-357 3 0
-357 20 0
-357 33 0
357 -3 -20 -33 0
-358 7 0
-358 24 0
-358 37 0
358 -7 -24 -37 0
-359 11 0
-359 28 0
-359 41 0
359 -11 -28 -41 0
-360 15 0
-360 32 0
-360 45 0
360 -15 -32 -45 0
-361 357 358 0
-361 -357 -358 0
361 -357 358 0
361 357 -358 0
-362 361 359 0
-362 -361 -359 0
362 -361 359 0
362 361 -359 0
-363 362 360 0
-363 -362 -360 0
363 -362 360 0
363 362 -360 0
-363 0
-364 3 0
-364 20 0
-364 34 0
364 -3 -20 -34 0
-365 7 0
-365 24 0
-365 38 0
365 -7 -24 -38 0
-366 11 0
-366 28 0
-366 42 0
366 -11 -28 -42 0
-367 15 0
-367 32 0
-367 46 0
367 -15 -32 -46 0
-368 364 365 0
-368 -364 -365 0
368 -364 365 0
368 364 -365 0
-369 368 366 0
-369 -368 -366 0
369 -368 366 0
369 368 -366 0
-370 369 367 0
-370 -369 -367 0
370 -369 367 0
370 369 -367 0
-370 0
-371 3 0
-371 20 0
-371 35 0
371 -3 -20 -35 0
-372 7 0
-372 24 0
-372 39 0
372 -7 -24 -39 0
-373 11 0
-373 28 0
-373 43 0
373 -11 -28 -43 0
-374 15 0
-374 32 0
-374 47 0
374 -15 -32 -47 0
-375 371 372 0
-375 -371 -372 0
375 -371 372 0
375 371 -372 0
-376 375 373 0
-376 -375 -373 0
376 -375 373 0
376 375 -373 0
-377 376 374 0
-377 -376 -374 0
377 -376 374 0
377 376 -374 0
-377 0
-378 3 0
-378 20 0
-378 36 0
378 -3 -20 -36 0
-379 7 0
-379 24 0
-379 40 0
379 -7 -24 -40 0
-380 11 0
-380 28 0
-380 44 0
380 -11 -28 -44 0
-381 15 0
-381 32 0
-381 48 0
381 -15 -32 -48 0
-382 378 379 0
-382 -378 -379 0
382 -378 379 0
382 378 -379 0
-383 382 380 0
-383 -382 -380 0
383 -382 380 0
383 382 -380 0
-384 383 381 0
-384 -383 -381 0
384 -383 381 0
384 383 -381 0
-384 0
-385 4 0
-385 17 0
-385 33 0
385 -4 -17 -33 0
-386 8 0
-386 21 0
-386 37 0
386 -8 -21 -37 0
-387 12 0
-387 25 0
-387 41 0
387 -12 -25 -41 0
-388 16 0
-388 29 0
-388 45 0
388 -16 -29 -45 0
-389 385 386 0
-389 -385 -386 0
389 -385 386 0
389 385 -386 0
-390 389 387 0
-390 -389 -387 0
390 -389 387 0
390 389 -387 0
-391 390 388 0
-391 -390 -388 0
391 -390 388 0
391 390 -388 0
-391 0
-392 4 0
-392 17 0
-392 34 0
392 -4 -17 -34 0
-393 8 0
-393 21 0
-393 38 0
393 -8 -21 -38 0
-394 12 0
-394 25 0
-394 42 0
394 -12 -25 -42 0
-395 16 0
-395 29 0
-395 46 0
395 -16 -29 -46 0
-396 392 393 0
-396 -392 -393 0
396 -392 393 0
396 392 -393 0
-397 396 394 0
-397 -396 -394 0
397 -396 394 0
397 396 -394 0
-398 397 395 0
-398 -397 -395 0
398 -397 395 0
398 397 -395 0
-398 0
-399 4 0
-399 17 0
-399 35 0
399 -4 -17 -35 0
-400 8 0
-400 21 0
-400 39 0
400 -8 -21 -39 0
-401 12 0
-401 25 0
-401 43 0
401 -12 -25 -43 0
-402 16 0
-402 29 0
-402 47 0
402 -16 -29 -47 0
-403 399 400 0
-403 -399 -400 0
403 -399 400 0
403 399 -400 0
-404 403 401 0
-404 -403 -401 0
404 -403 401 0
404 403 -401 0
-405 404 402 0
-405 -404 -402 0
405 -404 402 0
405 404 -402 0
-405 0
-406 4 0
-406 17 0
-406 36 0
406 -4 -17 -36 0
-407 8 0
-407 21 0
-407 40 0
407 -8 -21 -40 0
-408 12 0
-408 25 0
-408 44 0
408 -12 -25 -44 0
-409 16 0
-409 29 0
-409 48 0
409 -16 -29 -48 0
-410 406 407 0
-410 -406 -407 0
410 -406 407 0
410 406 -407 0
-411 410 408 0
-411 -410 -408 0
411 -410 408 0
411 410 -408 0
-412 411 409 0
-412 -411 -409 0
412 -411 409 0
412 411 -409 0
-412 0
-413 4 0
-413 18 0
-413 33 0
413 -4 -18 -33 0
-414 8 0
-414 22 0
-414 37 0
414 -8 -22 -37 0
-415 12 0
-415 26 0
-415 41 0
415 -12 -26 -41 0
-416 16 0
-416 30 0
-416 45 0
416 -16 -30 -45 0
-417 413 414 0
-417 -413 -414 0
417 -413 414 0
417 413 -414 0
-418 417 415 0
-418 -417 -415 0
418 -417 415 0
418 417 -415 0
-419 418 416 0
-419 -418 -416 0
419 -418 416 0
419 418 -416 0
-419 0
-420 4 0
-420 18 0
-420 34 0
420 -4 -18 -34 0
-421 8 0
-421 22 0
-421 38 0
421 -8 -22 -38 0
-422 12 0
-422 26 0
-422 42 0
422 -12 -26 -42 0
-423 16 0
-423 30 0
-423 46 0
423 -16 -30 -46 0
-424 420 421 0
-424 -420 -421 0
424 -420 421 0
424 420 -421 0
-425 424 422 0
-425 -424 -422 0
425 -424 422 0
425 424 -422 0
-426 425 423 0
-426 -425 -423 0
426 -425 423 0
426 425 -423 0
-426 0
-427 4 0
-427 18 0
-427 35 0
427 -4 -18 -35 0
-428 8 0
-428 22 0
-428 39 0
428 -8 -22 -39 0
-429 12 0
-429 26 0
-429 43 0
429 -12 -26 -43 0
-430 16 0
-430 30 0
-430 47 0
430 -16 -30 -47 0
-431 427 428 0
-431 -427 -428 0
431 -427 428 0
431 427 -428 0
-432 431 429 0
-432 -431 -429 0
432 -431 429 0
432 431 -429 0
-433 432 430 0
-433 -432 -430 0
433 -432 430 0
433 432 -430 0
-433 0
-434 4 0
-434 18 0
-434 36 0
434 -4 -18 -36 0
-435 8 0
-435 22 0
-435 40 0
435 -8 -22 -40 0
-436 12 0
-436 26 0
-436 44 0
436 -12 -26 -44 0
-437 16 0
-437 30 0
-437 48 0
437 -16 -30 -48 0
-438 434 435 0
-438 -434 -435 0
438 -434 435 0
438 434 -435 0
-439 438 436 0
-439 -438 -436 0
439 -438 436 0
439 438 -436 0
-440 439 437 0
-440 -439 -437 0
440 -439 437 0
440 439 -437 0
-440 0
-441 4 0
-441 19 0
-441 33 0
441 -4 -19 -33 0
-442 8 0
-442 23 0
-442 37 0
442 -8 -23 -37 0
-443 12 0
-443 27 0
-443 41 0
443 -12 -27 -41 0
-444 16 0
-444 31 0
-444 45 0
444 -16 -31 -45 0
-445 441 442 0
-445 -441 -442 0
445 -441 442 0
445 441 -442 0
-446 445 443 0
-446 -445 -443 0
446 -445 443 0
446 445 -443 0
-447 446 444 0
-447 -446 -444 0
447 -446 444 0
447 446 -444 0
-447 0
-448 4 0
-448 19 0
-448 34 0
448 -4 -19 -34 0
-449 8 0
-449 23 0
-449 38 0
449 -8 -23 -38 0
-450 12 0
-450 27 0
-450 42 0
450 -12 -27 -42 0
-451 16 0
-451 31 0
-451 46 0
451 -16 -31 -46 0
-452 448 449 0
-452 -448 -449 0
452 -448 449 0
452 448 -449 0
-453 452 450 0
-453 -452 -450 0
453 -452 450 0
453 452 -450 0
-454 453 451 0
-454 -453 -451 0
454 -453 451 0
454 453 -451 0
-454 0
-455 4 0
-455 19 0
-455 35 0
455 -4 -19 -35 0
-456 8 0
-456 23 0
-456 39 0
456 -8 -23 -39 0
-457 12 0
-457 27 0
-457 43 0
457 -12 -27 -43 0
-458 16 0
-458 31 0
-458 47 0
458 -16 -31 -47 0
-459 455 456 0
-459 -455 -456 0
459 -455 456 0
459 455 -456 0
-460 459 457 0
-460 -459 -457 0
460 -459 457 0
460 459 -457 0
-461 460 458 0
-461 -460 -458 0
461 -460 458 0
461 460 -458 0
461 0
-462 4 0
-462 19 0
-462 36 0
462 -4 -19 -36 0
-463 8 0
-463 23 0
-463 40 0
463 -8 -23 -40 0
-464 12 0
-464 27 0
-464 44 0
464 -12 -27 -44 0
-465 16 0
-465 31 0
-465 48 0
465 -16 -31 -48 0
-466 462 463 0
-466 -462 -463 0
466 -462 463 0
466 462 -463 0
-467 466 464 0
-467 -466 -464 0
467 -466 464 0
467 466 -464 0
-468 467 465 0
-468 -467 -465 0
468 -467 465 0
468 467 -465 0
-468 0
-469 4 0
-469 20 0
-469 33 0
469 -4 -20 -33 0
-470 8 0
-470 24 0
-470 37 0
470 -8 -24 -37 0
-471 12 0
-471 28 0
-471 41 0
471 -12 -28 -41 0
-472 16 0
-472 32 0
-472 45 0
472 -16 -32 -45 0
-473 469 470 0
-473 -469 -470 0
473 -469 470 0
473 469 -470 0
-474 473 471 0
-474 -473 -471 0
474 -473 471 0
474 473 -471 0
-475 474 472 0
-475 -474 -472 0
475 -474 472 0
475 474 -472 0
-475 0
-476 4 0
-476 20 0
-476 34 0
476 -4 -20 -34 0
-477 8 0
-477 24 0
-477 38 0
477 -8 -24 -38 0
-478 12 0
-478 28 0
-478 42 0
478 -12 -28 -42 0
-479 16 0
-479 32 0
-479 46 0
479 -16 -32 -46 0
-480 476 477 0
-480 -476 -477 0
480 -476 477 0
480 476 -477 0
-481 480 478 0
-481 -480 -478 0
481 -480 478 0
481 480 -478 0
-482 481 479 0
-482 -481 -479 0
482 -481 479 0
482 481 -479 0
-482 0
-483 4 0
-483 20 0
-483 35 0
483 -4 -20 -35 0
-484 8 0
-484 24 0
-484 39 0
484 -8 -24 -39 0
-485 12 0
-485 28 0
-485 43 0
485 -12 -28 -43 0
-486 16 0
-486 32 0
-486 47 0
486 -16 -32 -47 0
-487 483 484 0
-487 -483 -484 0
487 -483 484 0
487 483 -484 0
-488 487 485 0
-488 -487 -485 0
488 -487 485 0
488 487 -485 0
-489 488 486 0
-489 -488 -486 0
489 -488 486 0
489 488 -486 0
-489 0
-490 4 0
-490 20 0
-490 36 0
490 -4 -20 -36 0
-491 8 0
-491 24 0
-491 40 0
491 -8 -24 -40 0
-492 12 0
-492 28 0
-492 44 0
492 -12 -28 -44 0
-493 16 0
-493 32 0
-493 48 0
493 -16 -32 -48 0
-494 490 491 0
-494 -490 -491 0
494 -490 491 0
494 490 -491 0
-495 494 492 0
-495 -494 -492 0
495 -494 492 0
495 494 -492 0
-496 495 493 0
-496 -495 -493 0
496 -495 493 0
496 495 -493 0
496 0
